LAMMPS (3 Mar 2020)
####################################
# Example LAMMPS input script      #
# for a simple Lennard Jones fluid #
####################################


units		real
atom_style	atomic
dimension	3
boundary	p p p

lattice 	custom 13 a1 1.0 0.0 0.0 a2 0.0 1.0 0.0 a3 0.0 0.0 1.0 		basis 0.0 0.0 0.0 basis 0.5 0.5 0.5 		basis 0.25 0.25 0.0 basis 0.75 0.75 0.0 basis 0.75 0.25 0.5 basis 0.25 0.75 0.5
Lattice spacing in x,y,z = 13 13 13
region 	space block 0 5 0 5 0 5
create_box 	2 space
Created orthogonal box = (0 0 0) to (65 65 65)
  1 by 1 by 1 MPI processor grid
create_atoms 	1 box basis 3 2 basis 4 2 basis 5 2 basis 6 2
Created 750 atoms
  create_atoms CPU = 0.000471415 secs

####################################
# 2) Define interparticle interactions
#   - Here, we use truncated & shifted LJ
#   - All atoms of type 1 (in this case, all atoms)
#     have a mass of 1.0
####################################

pair_style	lj/cut 15
pair_modify	shift yes
pair_coeff	1 1 0.5 4.25
pair_coeff	1 2 1.45 5.75 #0.8 7.5
pair_coeff	2 2 1.0 7.5 #0.6 10.0
mass		1 102.181
mass		2 340.419

####################################
# 3) Neighbour lists
#   - Each atom will only consider neighbours
#     within a distance of 2.8 of each other
#   - The neighbour lists are recalculated
#     every timestep
####################################

neighbor        0.3 bin
neigh_modify    delay 10 every 1

####################################
# 4) Define simulation parameters
#   - We fix the temperature and
#     linear and angular momenta
#     of the system
#   - We run with fixed number (n),
#     volume (v), temperature (t)
####################################

#fix		LinMom all momentum 50 linear 1 1 1 angular
#fix		1 all nvt temp 1.00 1.00 5.0
fix 		1 all npt temp 373.0.0 373.0 25.0 iso 1.0 1.0  10.0

####################################
# 5) Final setup
#   - Define starting particle velocity
#   - Define timestep
#   - Define output system properties (temp, energy, etc.)
#   - Define simulation length
####################################

velocity	all create 373.0 199085 mom no

timestep	0.5

thermo_style	custom step temp press vol density


run_style	verlet

thermo		1000
run		300000
Neighbor list info ...
  update every 1 steps, delay 10 steps, check yes
  max neighbors/atom: 2000, page size: 100000
  master list distance cutoff = 15.3
  ghost atom cutoff = 15.3
  binsize = 7.65, bins = 9 9 9
  1 neighbor lists, perpetual/occasional/extra = 1 0 0
  (1) pair lj/cut, perpetual
      attributes: half, newton on
      pair build: half/bin/atomonly/newton
      stencil: half/bin/3d/newton
      bin: standard
Per MPI rank memory allocation (min/avg/max) = 3.133 | 3.133 | 3.133 Mbytes
Step Temp Press Volume Density 
       0          373    35859.512       274625    1.1836445 
    1000    372.70914   -5.9787511    582447.93   0.55809003 
    2000     374.1916   -4.9390947     358770.4   0.90603456 
    3000    381.82577  -0.13122572    329470.08   0.98660972 
    4000    392.96464  -0.47249068    311383.84    1.0439154 
    5000    376.51481  -0.79634128     296853.3    1.0950135 
    6000    376.65657  0.091720135    288097.75     1.128292 
    7000    371.45453   0.51162606    285558.18    1.1383263 
    8000    388.06808   0.61655406    283466.26    1.1467269 
    9000     360.9803 -0.082293325    281370.39    1.1552686 
   10000    379.61211   0.67348712    280171.32    1.1602129 
   11000    367.98177   0.39738459    278814.43    1.1658593 
   12000    386.26292  -0.65275934    272975.27    1.1907979 
   13000    357.58178    1.5816527    272707.63    1.1919666 
   14000    363.87976  -0.33050634    276239.88     1.176725 
   15000    351.54584    2.1360324    276206.97    1.1768652 
   16000    376.95768   0.44789746    278724.77    1.1662343 
   17000    366.50911    1.4840089    279347.62     1.163634 
   18000    383.96903   0.49669104    280284.09    1.1597461 
   19000    364.98977    1.5055895    283992.31    1.1446028 
   20000     381.9691  -0.26548414    284207.48    1.1437362 
   21000    367.26288    1.4010114    283322.16    1.1473101 
   22000    353.58331 -0.095185826    284130.18    1.1440473 
   23000    384.90931    1.0833343    282006.07    1.1526645 
   24000    370.25343 -0.095705022    283141.93    1.1480404 
   25000     380.3404     1.347474    283842.45    1.1452071 
   26000    363.32924  0.098840198    283742.48    1.1456106 
   27000    374.62572   0.92413052    284173.78    1.1438718 
   28000    378.46738    1.6815024    285320.21    1.1392757 
   29000    360.13874  -0.32578746       282341    1.1512971 
   30000    378.32726    1.1561957    281276.75    1.1556532 
   31000    380.77575   0.60818789    281731.48    1.1537879 
   32000     363.6312   -4.5831932    284467.73    1.1426898 
   33000      372.312    12.714567    283938.16     1.144821 
   34000     370.4951   0.92032957    285743.49    1.1375881 
   35000    401.69127    6.6878558    282901.05    1.1490179 
   36000    365.67154   0.74496865     283412.5    1.1469444 
   37000     375.4469     0.794917    284866.37    1.1410907 
   38000    360.64397  -0.23433373    284422.92    1.1428699 
   39000    383.51511   -1.6552344     286942.3    1.1328354 
   40000     376.4344   0.59233349     287308.6     1.131391 
   41000    374.63981    8.2393956    285706.35     1.137736 
   42000    369.61182   -45.641012    291155.28    1.1164434 
   43000    386.42797   -1.5058636    290349.35    1.1195423 
   44000     391.5741    3.1678694     287901.1    1.1290627 
   45000      359.826   -45.602368    286848.95     1.133204 
   46000    371.09428   -1.6370346    286872.85    1.1331096 
   47000    375.82079  -0.99440629       285529    1.1384426 
   48000    404.36215    98.955937    282701.85    1.1498276 
   49000    370.66996   0.80979748    287467.68     1.130765 
   50000    382.67244    -10.56444    291629.52    1.1146278 
   51000    368.70246    3.7667178    291632.09     1.114618 
   52000    387.70735  -0.20937855    288913.12    1.1251077 
   53000    359.25263    95.584006     286817.2    1.1333295 
   54000    382.26005    5.5784783    290512.82    1.1189124 
   55000     370.1502  -0.28619924    288465.29    1.1268544 
   56000    376.82945    36.313102    285705.59     1.137739 
   57000    371.74452    3.4972124    287165.22     1.131956 
   58000     389.0275   -5.6353445    285117.75    1.1400847 
   59000    368.94343    3.4793693    283026.54    1.1485085 
   60000    374.99909    -1.979482    284064.83    1.1443106 
   61000    377.87077   -3.2882825     284323.7    1.1432687 
   62000    362.19199    5.0172223     286850.8    1.1331967 
   63000    376.65054   -71.247903    289339.04    1.1234515 
   64000    371.49917    2.2040458    284350.21    1.1431621 
   65000    385.07909   -7.5958884    283063.37     1.148359 
   66000    360.18111   -48.733218    287472.71    1.1307452 
   67000    382.67589   -4.0553752    284080.47    1.1442475 
   68000    368.61809     1.936995    285079.28    1.1402385 
   69000    352.82842   0.14965509    285975.34    1.1366658 
   70000    375.03151    1.5896992       289124    1.1242871 
   71000     370.4652   -7.7003511    287596.74    1.1302575 
   72000    392.19094   -76.208545    289805.48    1.1216433 
   73000    369.17748    2.8109788    284690.77    1.1417946 
   74000    369.31985    1.6002593    282862.58    1.1491742 
   75000    377.83299   -87.217597     288418.4    1.1270376 
   76000    369.20349     3.625865    283756.17    1.1455553 
   77000    366.08423    1.6642824    283629.95    1.1460651 
   78000    400.58078   -1.0515555    283962.02    1.1447248 
   79000    351.52364   -89.345269    287600.25    1.1302437 
   80000    341.53321    84.544697    277984.61    1.1693395 
   81000    378.38427    11.364383     279922.7    1.1612434 
   82000    360.50408   -3.4930366     279777.7    1.1618452 
   83000    393.61467   -0.1805649    279994.25    1.1609466 
   84000    359.18616  -0.97224796    282173.55    1.1519803 
   85000    376.49697   -144.15905    289304.87    1.1235842 
   86000    357.26011    1.2006867    287342.31    1.1312583 
   87000    370.42969   -50.409204    285959.72    1.1367279 
   88000    388.36472  -0.11664953     282937.7    1.1488691 
   89000    352.10331   -5.1974916    281678.26    1.1540059 
   90000    390.31065   -14.879458    283152.62    1.1479971 
   91000    359.73953   -2.0841676    283238.11    1.1476506 
   92000    391.31363   -78.210622    287929.82    1.1289501 
   93000    370.74739   -1.9001197    285247.31    1.1395669 
   94000    382.63503    15.147206    282964.16    1.1487617 
   95000    374.50637   -64.692048    284485.76    1.1426174 
   96000    358.70629    1.3660966    283304.22    1.1473828 
   97000    404.65695   0.90878423    284970.07    1.1406755 
   98000    371.40812   -2.4301628    286058.56    1.1363351 
   99000    383.31566   -5.6064926    286439.01    1.1348258 
  100000    362.04577    15.216777    284556.69    1.1423326 
  101000    379.65748   -47.820124    289099.56    1.1243821 
  102000    358.99877   -106.94588    291582.78    1.1148065 
  103000    377.72707   -34.901131    285173.13    1.1398633 
  104000    379.10288    8.4194683    283670.69    1.1459005 
  105000    366.81657    3.4353402    283208.82    1.1477693 
  106000    356.21214     9.153797    282826.84    1.1493194 
  107000    367.25953    18.782055    281183.33    1.1560372 
  108000    381.03118    112.71329    277879.92      1.16978 
  109000    391.87329   -17.933854    285576.16    1.1382546 
  110000    370.02533   -5.6074844    287213.89    1.1317641 
  111000    373.05242    2.0780029    283762.92     1.145528 
  112000    383.15359    5.0882065    286646.29    1.1340052 
  113000    378.97169    3.7113501    285444.99    1.1387777 
  114000    371.54962    3.3513258    286775.71    1.1334934 
  115000    358.40401   -3.4182091    287959.45    1.1288339 
  116000    390.47805    -4.993727    291487.74      1.11517 
  117000    346.87083    4.0841923    291573.56    1.1148418 
  118000    372.15236   -12.942949    291604.57    1.1147232 
  119000    362.51458   -30.090131    289772.79    1.1217698 
  120000    366.60946   -5.2465858     289834.5     1.121531 
  121000    383.80671    134.63514    282866.92    1.1491566 
  122000    370.94831    13.959742    288063.43    1.1284264 
  123000     377.9264   -25.616341    290221.44    1.1200357 
  124000    389.32173   -9.9771861    290598.28    1.1185833 
  125000     373.7351   -3.1687345    289420.69    1.1231346 
  126000    380.92087    1.7666326     289600.4    1.1224376 
  127000    372.38417   -3.0237546    292555.17    1.1111011 
  128000    385.43291  -0.54750947    289853.38    1.1214579 
  129000    368.78193   -2.3682151    286922.28    1.1329144 
  130000    390.58068    2.5317553    285654.21    1.1379436 
  131000     373.4272   -6.0633693    285180.68    1.1398331 
  132000    394.81356   -7.0320549    283115.11    1.1481492 
  133000    373.60477   -9.2308661     285192.2    1.1397871 
  134000    354.43971    -8.097979    285233.12    1.1396236 
  135000    388.58476    13.822324    288046.04    1.1284945 
  136000    357.20603   -9.7847606    288701.54    1.1259323 
  137000    378.66692   -84.889262    292707.56    1.1105227 
  138000    346.71003   -126.79018     292034.8     1.113081 
  139000    378.44814      41.0067     284861.7    1.1411094 
  140000    364.11854    12.369755    288137.03    1.1281382 
  141000    384.69587   0.66885987    289775.93    1.1217577 
  142000    364.77806   -1.4574822    288791.22    1.1255826 
  143000    371.11929   -2.6886057     292904.8    1.1097748 
  144000    343.51497    4.1275929    289974.01    1.1209914 
  145000    363.19094    2.4613545    287473.06    1.1307438 
  146000    390.43351   0.74620933     286695.1    1.1338121 
  147000    355.97304    2.4084394    287052.47    1.1324006 
  148000    371.95172     4.393313    286908.66    1.1329682 
  149000     387.5413    13.464563    286511.66    1.1345381 
  150000    361.48267     1.601397    285596.14     1.138175 
  151000    375.52543   -8.0291184    287338.28    1.1312742 
  152000    391.19947   -9.3638636    291110.02    1.1166169 
  153000    360.83043  -0.94039108    291194.97    1.1162912 
  154000    373.01249   -3.3562262    289846.38     1.121485 
  155000    380.05289    -2.041208    290928.31    1.1173144 
  156000     372.0599     5.857996    290035.87    1.1207523 
  157000    374.88389    -4.496044    288735.64    1.1257993 
  158000    368.54226   -5.2717715     290323.5     1.119642 
  159000    376.41277   -52.254725    291061.88    1.1168016 
  160000    364.58017   -70.882219    291887.53    1.1136426 
  161000    378.95141    13.116521    284927.78    1.1408448 
  162000    358.92791    5.7802661    286959.69    1.1327667 
  163000    378.62189  -0.72339477    291151.36    1.1164584 
  164000    369.33503   -8.5040514    291438.89    1.1153569 
  165000    365.40141   -114.17371    292276.18    1.1121617 
  166000    360.77264   -28.352096    290468.72    1.1190822 
  167000    381.54298   -3.7102563    288458.02    1.1268828 
  168000    376.87496   -6.0268074    288572.13    1.1264372 
  169000    365.62119   -1.8697735    288047.52    1.1284887 
  170000    377.93598    3.8376973    290511.82    1.1189162 
  171000    371.55626   -2.8485681    288315.26    1.1274408 
  172000    370.52169   -55.552776    288699.61    1.1259398 
  173000    383.89253     61.84751    282303.85    1.1514486 
  174000     369.8868   -7.1226244    286107.81    1.1361395 
  175000    376.16383   0.63334545    285845.47    1.1371822 
  176000    360.79674   -4.4223807    287434.11     1.130897 
  177000    381.58561    5.6628509    290867.57    1.1175477 
  178000    360.82168     39.72285    289884.52    1.1213375 
  179000    379.28157    114.72506    284941.69    1.1407891 
  180000    374.78359    3.2015913    289148.53    1.1241917 
  181000     377.0596    5.6995475    291827.39    1.1138721 
  182000    372.36876    12.460089    296323.59     1.096971 
  183000    379.66217   -110.96377    298335.61    1.0895728 
  184000    367.67482    13.160346    289250.66    1.1237948 
  185000    392.08175    3.1788094    287372.57    1.1311392 
  186000    361.72819    6.7570184    288815.63    1.1254875 
  187000    357.78964   -28.248647    287981.43    1.1287477 
  188000    378.26837    7.9578758    286634.73    1.1340509 
  189000     372.2733   -37.098331     286517.4    1.1345153 
  190000    378.79545    27.557533    285066.87    1.1402882 
  191000     391.2398    3.8936133    285043.72    1.1403808 
  192000    361.35286   -38.979635     285989.7    1.1366087 
  193000    383.82807    13.013237       287150     1.132016 
  194000    373.44687   -5.7537473    284952.84    1.1407445 
  195000    371.56554   -6.4194263    286116.12    1.1361065 
  196000    372.09039  -0.10151665    286659.78    1.1339518 
  197000    372.97415    7.3732617    287258.31    1.1315891 
  198000    367.49284   -8.7009125    286449.51    1.1347842 
  199000    376.92458     112.2053    283154.74    1.1479885 
  200000    372.62448   -9.3389156    285090.83    1.1401923 
  201000     370.7189   -6.6224336    284770.33    1.1414756 
  202000    377.49359   -8.0570307    286337.26    1.1352291 
  203000     371.8147    19.520715    282472.66    1.1507605 
  204000    374.09732    8.1619475    284695.08    1.1417773 
  205000    358.93961   -47.152691    286001.38    1.1365623 
  206000    368.54314   -20.588656    283206.86    1.1477772 
  207000    361.84373    5.1932205    282992.75    1.1486456 
  208000    361.56186   -57.529155    286885.19    1.1330609 
  209000    373.92941   -16.630969    285738.99     1.137606 
  210000    358.17291    7.8681447    283841.19    1.1452122 
  211000    385.93696    88.518084    281885.48    1.1531576 
  212000     371.6338    21.291682    284037.27    1.1444216 
  213000    371.41226   -8.2775562    284839.86     1.141197 
  214000    371.69378    30.069697    282996.13    1.1486319 
  215000    364.79209   -9.6347504    282012.08    1.1526399 
  216000    366.58538     1.858985    283550.88    1.1463847 
  217000    385.09105    1.3409163    283786.84    1.1454315 
  218000    354.19568    10.884396    285028.72    1.1404408 
  219000     384.4657     88.76776    281927.55    1.1529855 
  220000    380.62837    6.6399193    285055.76    1.1403326 
  221000    355.82825   -34.874056    285126.93     1.140048 
  222000    392.83834    7.3443057    282076.46    1.1523769 
  223000    369.92816    67.781672    278312.75    1.1679608 
  224000    383.27057    7.7963399    282931.47    1.1488944 
  225000    365.63212    114.80661    276571.62    1.1753136 
  226000     371.3383   -5.4025687    282850.32     1.149224 
  227000    381.13673    10.156845    285937.54     1.136816 
  228000    385.12325   -10.068155    289895.58    1.1212947 
  229000    368.22558    8.5722121    288903.03     1.125147 
  230000    361.88311   -75.079239    291103.34    1.1166426 
  231000    376.66941   -7.2451214    284732.41    1.1416276 
  232000    367.78306    67.941331    281202.21    1.1559595 
  233000    360.73055    8.1764139    285267.91    1.1394846 
  234000    376.94229    5.2464704    285800.43    1.1373614 
  235000    367.37684    16.400385    284785.23    1.1414159 
  236000    374.88649     6.180912    286880.42    1.1330797 
  237000    337.99838   -49.703981    289362.67    1.1233598 
  238000    370.49981   -32.619222    287179.41       1.1319 
  239000    377.51754     6.498057     287163.9    1.1319611 
  240000    380.57915   -71.921457    293306.11    1.1082564 
  241000     364.8526    12.740578    288729.21    1.1258244 
  242000    375.20936   -10.721262    290635.07    1.1184417 
  243000    360.59257    71.931226    285903.46    1.1369515 
  244000    377.39604    18.313447    284802.98    1.1413447 
  245000     367.7258    10.215338    284211.14    1.1437215 
  246000    371.73061   -32.159919    285026.06    1.1404514 
  247000    383.05349     2.103566     283864.6    1.1451177 
  248000     374.1937    15.606226    282514.01    1.1505921 
  249000    352.54946   -17.586103    284328.43    1.1432496 
  250000    373.23247    4.4596156     285933.6    1.1368317 
  251000    365.83208    75.651389    283777.38    1.1454697 
  252000    376.88436    12.411001     281721.6    1.1538284 
  253000    363.81737   -30.646499    285346.43     1.139171 
  254000    390.42132     22.08288    284482.02    1.1426324 
  255000    375.12647   -3.1588742    284227.53    1.1436555 
  256000    357.23303   -52.507778    286878.03    1.1330891 
  257000     378.3958    3.1124481    288056.02    1.1284554 
  258000    381.09649   -107.88333    294306.69    1.1044886 
  259000    358.11149    5.3751842    286663.92    1.1339354 
  260000    375.51364   -37.878533    287860.57    1.1292216 
  261000    381.05837    18.763024    286093.38    1.1361968 
  262000    376.98455    18.089021    289288.17    1.1236491 
  263000    374.78398    17.810876    289158.94    1.1241512 
  264000    373.57651   -8.8685692     288398.6     1.127115 
  265000    369.35579   -109.72002    293399.17    1.1079049 
  266000    375.91267    5.5817339    290877.75    1.1175086 
  267000    371.12601   -18.994739    289840.63    1.1215073 
  268000    393.83111   -9.2227421    292368.48    1.1118106 
  269000    368.07476     31.17633    291302.05    1.1158809 
  270000    366.34509     7.120399    294909.02    1.1022328 
  271000    377.01392   -7.0238164     291821.8    1.1138934 
  272000    356.66062    18.281959    289768.55    1.1217863 
  273000    376.45241    9.7191311    293095.75    1.1090519 
  274000    383.21658    14.841561    292577.04    1.1110181 
  275000    360.48872    -55.52228    292015.14    1.1131559 
  276000    381.51348   -2.3089161    288315.68    1.1274391 
  277000    357.69431    36.217988    286817.16    1.1333296 
  278000    377.55409    35.813212    288582.08    1.1263983 
  279000    388.60123    10.927815    288786.88    1.1255995 
  280000    366.82304    11.705227    287451.96    1.1308268 
  281000    381.82878   -1.2909218    291732.02    1.1142362 
  282000     369.6601   -19.767719     288677.3    1.1260268 
  283000    355.90963   -11.433986    287585.92    1.1303001 
  284000    360.05079    9.5910647    287349.02    1.1312319 
  285000    361.30906    57.706336    285695.02     1.137781 
  286000    372.43364    8.9153399    292758.28    1.1103303 
  287000    362.75756   -20.617237    295429.59    1.1002905 
  288000    357.76183   -4.5227166    292446.64    1.1115135 
  289000    391.69757     -1.29021    290405.85    1.1193245 
  290000    359.20101   -42.178313    290199.33    1.1201211 
  291000     355.5123   -6.3679395    288356.87    1.1272781 
  292000    373.83186  -0.86941225    286535.17     1.134445 
  293000    365.54637    3.6629295    290701.55    1.1181859 
  294000    372.62715     23.04643    291957.43     1.113376 
  295000    370.05066   -5.3591325    291295.25    1.1159069 
  296000    370.09533    26.830666    289227.65    1.1238842 
  297000    372.20385    14.963054       287274    1.1315273 
  298000    378.31598   -4.9744864    289181.71    1.1240627 
  299000    372.03716   -21.872564    285771.54    1.1374764 
  300000    359.65266    12.241227     286799.7    1.1333986 
Loop time of 74.7812 on 1 procs for 300000 steps with 750 atoms

Performance: 173.306 ns/day, 0.138 hours/ns, 4011.702 timesteps/s
99.6% CPU use with 1 MPI tasks x no OpenMP threads

MPI task timing breakdown:
Section |  min time  |  avg time  |  max time  |%varavg| %total
---------------------------------------------------------------
Pair    | 51.668     | 51.668     | 51.668     |   0.0 | 69.09
Neigh   | 12.612     | 12.612     | 12.612     |   0.0 | 16.87
Comm    | 2.4587     | 2.4587     | 2.4587     |   0.0 |  3.29
Output  | 0.0069375  | 0.0069375  | 0.0069375  |   0.0 |  0.01
Modify  | 7.1382     | 7.1382     | 7.1382     |   0.0 |  9.55
Other   |            | 0.8976     |            |       |  1.20

Nlocal:    750 ave 750 max 750 min
Histogram: 1 0 0 0 0 0 0 0 0 0
Nghost:    1544 ave 1544 max 1544 min
Histogram: 1 0 0 0 0 0 0 0 0 0
Neighs:    14509 ave 14509 max 14509 min
Histogram: 1 0 0 0 0 0 0 0 0 0

Total # of neighbors = 14509
Ave neighs/atom = 19.3453
Neighbor list builds = 16396
Dangerous builds = 4439

unfix 		1
fix		1 all nve
run 		200000
Per MPI rank memory allocation (min/avg/max) = 3.143 | 3.143 | 3.143 Mbytes
Step Temp Press Volume Density 
  300000    359.65266    12.241227     286799.7    1.1333986 
  301000    366.87848   -3.0746752     286799.7    1.1333986 
  302000    357.92191    14.513171     286799.7    1.1333986 
  303000    363.82424    1.1376205     286799.7    1.1333986 
  304000     366.6673   -6.7154284     286799.7    1.1333986 
  305000    370.06707   -20.883841     286799.7    1.1333986 
  306000     360.4491   -4.2338474     286799.7    1.1333986 
  307000    367.54187    -10.11227     286799.7    1.1333986 
  308000    374.56356   -13.465843     286799.7    1.1333986 
  309000    366.73533   -2.7733756     286799.7    1.1333986 
  310000     355.1568    35.963758     286799.7    1.1333986 
  311000     362.0444    13.024035     286799.7    1.1333986 
  312000    364.87881     -16.4065     286799.7    1.1333986 
  313000    379.78325   -35.146244     286799.7    1.1333986 
  314000    368.81902  -0.26859144     286799.7    1.1333986 
  315000    378.88694   -40.376634     286799.7    1.1333986 
  316000    356.43099   -7.7413366     286799.7    1.1333986 
  317000    368.78121   -35.806089     286799.7    1.1333986 
  318000    360.81282    4.8995682     286799.7    1.1333986 
  319000    367.13683   -35.090638     286799.7    1.1333986 
  320000     365.5474   -47.500273     286799.7    1.1333986 
  321000    370.65865   -65.095053     286799.7    1.1333986 
  322000    370.76167   -37.268815     286799.7    1.1333986 
  323000    360.22759     11.94585     286799.7    1.1333986 
  324000    371.65169   -44.231152     286799.7    1.1333986 
  325000    364.72441   -10.119169     286799.7    1.1333986 
  326000    373.96195   -51.767923     286799.7    1.1333986 
  327000    358.80965   -4.2331211     286799.7    1.1333986 
  328000    356.65384    1.5326441     286799.7    1.1333986 
  329000    372.06093   -29.475339     286799.7    1.1333986 
  330000    361.93125   -25.078753     286799.7    1.1333986 
  331000     364.4265   -23.209572     286799.7    1.1333986 
  332000    378.50331   -58.680153     286799.7    1.1333986 
  333000    357.71516    11.647603     286799.7    1.1333986 
  334000    377.34828   -46.883428     286799.7    1.1333986 
  335000      360.074    20.448723     286799.7    1.1333986 
  336000     363.6347    9.8833989     286799.7    1.1333986 
  337000    363.00733    12.451058     286799.7    1.1333986 
  338000    366.75564   -27.278598     286799.7    1.1333986 
  339000    358.95478    -30.96355     286799.7    1.1333986 
  340000    370.58645   -52.732969     286799.7    1.1333986 
  341000    361.86375    -45.81691     286799.7    1.1333986 
  342000    374.16548   -71.860289     286799.7    1.1333986 
  343000    370.00411   -63.445381     286799.7    1.1333986 
  344000    356.34712   -10.500454     286799.7    1.1333986 
  345000     371.8153   -28.800502     286799.7    1.1333986 
  346000    376.50513   -34.314066     286799.7    1.1333986 
  347000    380.70288   -46.404851     286799.7    1.1333986 
  348000    364.82076   -6.0918938     286799.7    1.1333986 
  349000    382.84347   -40.504434     286799.7    1.1333986 
  350000    362.73309  -0.10030843     286799.7    1.1333986 
  351000    363.30595  -0.16916744     286799.7    1.1333986 
  352000    377.47803   -32.727785     286799.7    1.1333986 
  353000    365.30557   -19.577231     286799.7    1.1333986 
  354000    374.22853   -49.547938     286799.7    1.1333986 
  355000    371.97159   -18.608569     286799.7    1.1333986 
  356000    373.37687   -29.991808     286799.7    1.1333986 
  357000    359.14862    1.5905252     286799.7    1.1333986 
  358000    366.29833   -25.470753     286799.7    1.1333986 
  359000    363.66215   -15.457927     286799.7    1.1333986 
  360000    371.96517   -33.828316     286799.7    1.1333986 
  361000    360.05509   -10.351569     286799.7    1.1333986 
  362000    367.11856   -34.202908     286799.7    1.1333986 
  363000    375.48242   -42.082289     286799.7    1.1333986 
  364000    372.14316   -38.941979     286799.7    1.1333986 
  365000    362.85014   -22.907316     286799.7    1.1333986 
  366000    355.61666   -8.8280779     286799.7    1.1333986 
  367000    361.09697   -7.3494835     286799.7    1.1333986 
  368000    364.32766   -12.613629     286799.7    1.1333986 
  369000    360.58832   -15.097391     286799.7    1.1333986 
  370000    364.66089   -40.575495     286799.7    1.1333986 
  371000     369.6572   -55.953007     286799.7    1.1333986 
  372000    371.61546   -64.697754     286799.7    1.1333986 
  373000    355.65286   -33.124152     286799.7    1.1333986 
  374000    351.21316    7.1862997     286799.7    1.1333986 
  375000    352.34922   -11.747825     286799.7    1.1333986 
  376000     364.6862   -37.146547     286799.7    1.1333986 
  377000    364.35999   -40.989627     286799.7    1.1333986 
  378000    367.89407   -35.549201     286799.7    1.1333986 
  379000     363.6209    6.4557047     286799.7    1.1333986 
  380000    369.28283   -7.6385495     286799.7    1.1333986 
  381000     371.1854   -26.549381     286799.7    1.1333986 
  382000    369.51013   -7.5038511     286799.7    1.1333986 
  383000    384.61956   -71.450188     286799.7    1.1333986 
  384000    375.07178   -57.975423     286799.7    1.1333986 
  385000     364.6525   -20.588246     286799.7    1.1333986 
  386000    372.76039    -64.68749     286799.7    1.1333986 
  387000    371.92545   -36.909479     286799.7    1.1333986 
  388000    373.88324   -25.824155     286799.7    1.1333986 
  389000    355.88155    22.388787     286799.7    1.1333986 
  390000    368.92191   -30.394123     286799.7    1.1333986 
  391000    372.92012   -14.484256     286799.7    1.1333986 
  392000    369.69767   -7.4434248     286799.7    1.1333986 
  393000     368.1744   -16.047648     286799.7    1.1333986 
  394000    365.17362   -22.652688     286799.7    1.1333986 
  395000     364.8368   -11.347108     286799.7    1.1333986 
  396000    356.01707    16.075506     286799.7    1.1333986 
  397000     364.7848   -11.030254     286799.7    1.1333986 
  398000    373.99324   -47.105748     286799.7    1.1333986 
  399000    384.69338     -68.6631     286799.7    1.1333986 
  400000    372.27928   -39.238908     286799.7    1.1333986 
  401000    376.30604   -60.456104     286799.7    1.1333986 
  402000    368.22215   -25.404609     286799.7    1.1333986 
  403000    369.91428   -22.297008     286799.7    1.1333986 
  404000    365.84562   -26.381407     286799.7    1.1333986 
  405000    379.31681   -58.521136     286799.7    1.1333986 
  406000    365.55049    -4.447162     286799.7    1.1333986 
  407000    362.81114    18.264997     286799.7    1.1333986 
  408000    365.34072   -18.627641     286799.7    1.1333986 
  409000    358.26859    9.0288889     286799.7    1.1333986 
  410000    360.24966   -9.2402476     286799.7    1.1333986 
  411000     355.4428    20.535822     286799.7    1.1333986 
  412000    364.48376   -3.2679347     286799.7    1.1333986 
  413000    361.86367    2.6876928     286799.7    1.1333986 
  414000    376.14586   -54.065971     286799.7    1.1333986 
  415000    364.83135   -23.437208     286799.7    1.1333986 
  416000    360.99242   -9.3580246     286799.7    1.1333986 
  417000    358.84132   -13.181717     286799.7    1.1333986 
  418000      359.147    4.3240943     286799.7    1.1333986 
  419000    363.09731   -22.105357     286799.7    1.1333986 
  420000     371.4192   -48.436955     286799.7    1.1333986 
  421000     362.4552     24.63825     286799.7    1.1333986 
  422000    372.36626   -4.2391041     286799.7    1.1333986 
  423000    355.86134   -1.0314876     286799.7    1.1333986 
  424000    366.96279   -43.826555     286799.7    1.1333986 
  425000    366.82547    -54.17063     286799.7    1.1333986 
  426000    371.43284   -47.482433     286799.7    1.1333986 
  427000    375.47925   -36.136049     286799.7    1.1333986 
  428000    367.91019   -14.949143     286799.7    1.1333986 
  429000    369.98198   -16.206176     286799.7    1.1333986 
  430000     376.4044   -59.698245     286799.7    1.1333986 
  431000    360.37212   -20.340604     286799.7    1.1333986 
  432000    367.47217   -36.827053     286799.7    1.1333986 
  433000    373.68109   -65.198392     286799.7    1.1333986 
  434000    369.90299   -47.551077     286799.7    1.1333986 
  435000    357.59157   -9.9195309     286799.7    1.1333986 
  436000    368.10984   -38.105212     286799.7    1.1333986 
  437000     355.6764   -8.9690708     286799.7    1.1333986 
  438000    365.49659   -25.390551     286799.7    1.1333986 
  439000    379.61486   -16.435575     286799.7    1.1333986 
  440000    363.36691    10.585495     286799.7    1.1333986 
  441000    349.37132    43.646144     286799.7    1.1333986 
  442000    367.74239    7.6828031     286799.7    1.1333986 
  443000    360.30791    19.365273     286799.7    1.1333986 
  444000    364.77344   -8.8163403     286799.7    1.1333986 
  445000    376.65954   -53.329743     286799.7    1.1333986 
  446000    372.33089   -40.317489     286799.7    1.1333986 
  447000    374.06979   -35.626592     286799.7    1.1333986 
  448000    368.36014   -34.705629     286799.7    1.1333986 
  449000    358.93635    9.2495175     286799.7    1.1333986 
  450000    360.50381   -7.6107206     286799.7    1.1333986 
  451000    379.80278   -45.532838     286799.7    1.1333986 
  452000    374.06784   -26.606999     286799.7    1.1333986 
  453000    368.41461   -12.533518     286799.7    1.1333986 
  454000    378.31862   -34.721854     286799.7    1.1333986 
  455000    358.41561    36.415698     286799.7    1.1333986 
  456000    362.99485   -3.2326391     286799.7    1.1333986 
  457000    360.27661   -1.8543161     286799.7    1.1333986 
  458000     372.7075   -8.8034036     286799.7    1.1333986 
  459000    373.88862    4.7704485     286799.7    1.1333986 
  460000    366.99728    18.048976     286799.7    1.1333986 
  461000    378.76607   -10.910339     286799.7    1.1333986 
  462000    366.62881   -2.9447121     286799.7    1.1333986 
  463000    372.29945    -46.09021     286799.7    1.1333986 
  464000    374.01308   -33.994246     286799.7    1.1333986 
  465000      356.211    49.841772     286799.7    1.1333986 
  466000    372.27707   -14.284348     286799.7    1.1333986 
  467000    374.33649   -31.383822     286799.7    1.1333986 
  468000    361.35902    -15.76656     286799.7    1.1333986 
  469000    385.26962   -67.248018     286799.7    1.1333986 
  470000    355.73728    15.858529     286799.7    1.1333986 
  471000    358.58552   -8.3339152     286799.7    1.1333986 
  472000    361.12058    8.8721497     286799.7    1.1333986 
  473000    373.79101   -1.1213425     286799.7    1.1333986 
  474000    371.29705    32.992241     286799.7    1.1333986 
  475000     366.3531    3.1228038     286799.7    1.1333986 
  476000    365.03921   -14.919055     286799.7    1.1333986 
  477000    372.45641   -36.173654     286799.7    1.1333986 
  478000    365.83511   -45.223379     286799.7    1.1333986 
  479000    358.03205   -44.454891     286799.7    1.1333986 
  480000    364.38486    -43.22396     286799.7    1.1333986 
  481000    364.95653   -32.663346     286799.7    1.1333986 
  482000     370.8768   -60.550629     286799.7    1.1333986 
  483000    355.23701   -20.483028     286799.7    1.1333986 
  484000     362.1925   -11.395079     286799.7    1.1333986 
  485000    381.62827   -63.965698     286799.7    1.1333986 
  486000    365.13902   -13.764122     286799.7    1.1333986 
  487000    360.86225    3.6825911     286799.7    1.1333986 
  488000    373.79793   -33.993187     286799.7    1.1333986 
  489000    368.70917    15.158086     286799.7    1.1333986 
  490000    359.75211    28.260586     286799.7    1.1333986 
  491000    373.19855   -36.761815     286799.7    1.1333986 
  492000    367.27504   -28.259433     286799.7    1.1333986 
  493000    365.53007    -15.20477     286799.7    1.1333986 
  494000    357.79042   -1.5601935     286799.7    1.1333986 
  495000    361.02468   -9.8038504     286799.7    1.1333986 
  496000    370.38854   -30.933155     286799.7    1.1333986 
  497000    355.26295    7.6272523     286799.7    1.1333986 
  498000    364.03878   -7.1902826     286799.7    1.1333986 
  499000    372.07744   -39.872109     286799.7    1.1333986 
  500000     355.7336    30.553209     286799.7    1.1333986 
Loop time of 40.7259 on 1 procs for 200000 steps with 750 atoms

Performance: 212.150 ns/day, 0.113 hours/ns, 4910.876 timesteps/s
98.7% CPU use with 1 MPI tasks x no OpenMP threads

MPI task timing breakdown:
Section |  min time  |  avg time  |  max time  |%varavg| %total
---------------------------------------------------------------
Pair    | 33.582     | 33.582     | 33.582     |   0.0 | 82.46
Neigh   | 3.4276     | 3.4276     | 3.4276     |   0.0 |  8.42
Comm    | 1.6218     | 1.6218     | 1.6218     |   0.0 |  3.98
Output  | 0.0052183  | 0.0052183  | 0.0052183  |   0.0 |  0.01
Modify  | 1.3588     | 1.3588     | 1.3588     |   0.0 |  3.34
Other   |            | 0.7309     |            |       |  1.79

Nlocal:    750 ave 750 max 750 min
Histogram: 1 0 0 0 0 0 0 0 0 0
Nghost:    1677 ave 1677 max 1677 min
Histogram: 1 0 0 0 0 0 0 0 0 0
Neighs:    14465 ave 14465 max 14465 min
Histogram: 1 0 0 0 0 0 0 0 0 0

Total # of neighbors = 14465
Ave neighs/atom = 19.2867
Neighbor list builds = 4309
Dangerous builds = 0

#dump pos all xyz 10 lj.xyz

dump		2 all custom 1 lj_trajectory_match_nve_large.out id mass x y z xu yu zu fx fy fz
dump_modify	2 sort id
dump_modify	2 format line "%d %.2f %.12f %.12f %.12f %.6f %.6f %.6f %.3f %.3f %.3f"

run		2000
Per MPI rank memory allocation (min/avg/max) = 4.527 | 4.527 | 4.527 Mbytes
Step Temp Press Volume Density 
  500000     355.7336    30.553209     286799.7    1.1333986 
  501000    361.49799    4.1180519     286799.7    1.1333986 
  502000    372.21528   -23.210474     286799.7    1.1333986 
Loop time of 8.58888 on 1 procs for 2000 steps with 750 atoms

Performance: 10.060 ns/day, 2.386 hours/ns, 232.859 timesteps/s
98.8% CPU use with 1 MPI tasks x no OpenMP threads

MPI task timing breakdown:
Section |  min time  |  avg time  |  max time  |%varavg| %total
---------------------------------------------------------------
Pair    | 0.33827    | 0.33827    | 0.33827    |   0.0 |  3.94
Neigh   | 0.032768   | 0.032768   | 0.032768   |   0.0 |  0.38
Comm    | 0.023087   | 0.023087   | 0.023087   |   0.0 |  0.27
Output  | 8.1632     | 8.1632     | 8.1632     |   0.0 | 95.04
Modify  | 0.02061    | 0.02061    | 0.02061    |   0.0 |  0.24
Other   |            | 0.01097    |            |       |  0.13

Nlocal:    750 ave 750 max 750 min
Histogram: 1 0 0 0 0 0 0 0 0 0
Nghost:    1674 ave 1674 max 1674 min
Histogram: 1 0 0 0 0 0 0 0 0 0
Neighs:    14506 ave 14506 max 14506 min
Histogram: 1 0 0 0 0 0 0 0 0 0

Total # of neighbors = 14506
Ave neighs/atom = 19.3413
Neighbor list builds = 43
Dangerous builds = 0

####################################
# 6) Advanced inputs
####################################

#dump		2 all custom 1000 positions.lammpstrj id x y z vx vy vz
#dump_modify	2 sort id

#compute		RDF all rdf 150 cutoff 3.5
#fix		RDF_OUTPUT all ave/time 25 100 5000 c_RDF[*] file rdf_lj.out mode vector

#compute		MSD all msd
#fix		MSD_OUTPUT all ave/correlate 1 5000 5000 c_MSD[*] file msd_lj.out ave running

#compute		VACF all vacf
#fix		VACF_OUTPUT all ave/correlate 1 2500 5000 c_VACF[*] file vacf_lj.out ave running

#run		5000

#write_restart	restart2.lj.equil
Total wall time: 0:02:06
