LAMMPS (3 Mar 2020)
####################################
# Example LAMMPS input script      #
# for a simple Lennard Jones fluid #
####################################


units		real
atom_style	atomic
dimension	3
boundary	p p p

lattice 	custom 13 a1 1.0 0.0 0.0 a2 0.0 1.0 0.0 a3 0.0 0.0 1.0 		basis 0.0 0.0 0.0 basis 0.5 0.5 0.5 		basis 0.25 0.25 0.0 basis 0.75 0.75 0.0 basis 0.75 0.25 0.5 basis 0.25 0.75 0.5
Lattice spacing in x,y,z = 13 13 13
region 	space block 0 5 0 5 0 5
create_box 	2 space
Created orthogonal box = (0 0 0) to (65 65 65)
  1 by 1 by 1 MPI processor grid
create_atoms 	1 box basis 3 2 basis 4 2 basis 5 2 basis 6 2
Created 750 atoms
  create_atoms CPU = 0.00101255 secs

####################################
# 2) Define interparticle interactions
#   - Here, we use truncated & shifted LJ
#   - All atoms of type 1 (in this case, all atoms)
#     have a mass of 1.0
####################################

pair_style	lj/cut 15
pair_modify	shift yes
pair_coeff	1 1 0.5 4.25
pair_coeff	1 2 1.45 5.75 #0.8 7.5
pair_coeff	2 2 1.0 7.5 #0.6 10.0
mass		1 102.181
mass		2 340.419

####################################
# 3) Neighbour lists
#   - Each atom will only consider neighbours
#     within a distance of 2.8 of each other
#   - The neighbour lists are recalculated
#     every timestep
####################################

neighbor        0.3 bin
neigh_modify    delay 10 every 1

####################################
# 4) Define simulation parameters
#   - We fix the temperature and
#     linear and angular momenta
#     of the system
#   - We run with fixed number (n),
#     volume (v), temperature (t)
####################################

#fix		LinMom all momentum 50 linear 1 1 1 angular
#fix		1 all nvt temp 1.00 1.00 5.0
fix 		1 all npt temp 373.0.0 373.0 25.0 iso 1.0 1.0  10.0

####################################
# 5) Final setup
#   - Define starting particle velocity
#   - Define timestep
#   - Define output system properties (temp, energy, etc.)
#   - Define simulation length
####################################

velocity	all create 373.0 199085 mom no

timestep	0.5

thermo_style	custom step temp press vol density


run_style	verlet

thermo		1000
run		4000000
Neighbor list info ...
  update every 1 steps, delay 10 steps, check yes
  max neighbors/atom: 2000, page size: 100000
  master list distance cutoff = 15.3
  ghost atom cutoff = 15.3
  binsize = 7.65, bins = 9 9 9
  1 neighbor lists, perpetual/occasional/extra = 1 0 0
  (1) pair lj/cut, perpetual
      attributes: half, newton on
      pair build: half/bin/atomonly/newton
      stencil: half/bin/3d/newton
      bin: standard
Per MPI rank memory allocation (min/avg/max) = 3.133 | 3.133 | 3.133 Mbytes
Step Temp Press Volume Density 
       0          373    35859.512       274625    1.1836445 
    1000    372.70914   -5.9787511    582447.93   0.55809003 
    2000     374.1916   -4.9390947     358770.4   0.90603456 
    3000    381.82577  -0.13122572    329470.08   0.98660972 
    4000    392.96464  -0.47249068    311383.84    1.0439154 
    5000    376.51481  -0.79634128     296853.3    1.0950135 
    6000    376.65657  0.091720135    288097.75     1.128292 
    7000    371.45453   0.51162606    285558.18    1.1383263 
    8000    388.06808   0.61655406    283466.26    1.1467269 
    9000     360.9803 -0.082293325    281370.39    1.1552686 
   10000    379.61211   0.67348712    280171.32    1.1602129 
   11000    367.98177   0.39738459    278814.43    1.1658593 
   12000    386.26292  -0.65275934    272975.27    1.1907979 
   13000    357.58178    1.5816527    272707.63    1.1919666 
   14000    363.87976  -0.33050634    276239.88     1.176725 
   15000    351.54584    2.1360324    276206.97    1.1768652 
   16000    376.95768   0.44789746    278724.77    1.1662343 
   17000    366.50911    1.4840089    279347.62     1.163634 
   18000    383.96903   0.49669104    280284.09    1.1597461 
   19000    364.98977    1.5055895    283992.31    1.1446028 
   20000     381.9691  -0.26548414    284207.48    1.1437362 
   21000    367.26288    1.4010114    283322.16    1.1473101 
   22000    353.58331 -0.095185826    284130.18    1.1440473 
   23000    384.90931    1.0833343    282006.07    1.1526645 
   24000    370.25343 -0.095705022    283141.93    1.1480404 
   25000     380.3404     1.347474    283842.45    1.1452071 
   26000    363.32924  0.098840198    283742.48    1.1456106 
   27000    374.62572   0.92413052    284173.78    1.1438718 
   28000    378.46738    1.6815024    285320.21    1.1392757 
   29000    360.13874  -0.32578746       282341    1.1512971 
   30000    378.32726    1.1561957    281276.75    1.1556532 
   31000    380.77575   0.60818789    281731.48    1.1537879 
   32000     363.6312   -4.5831932    284467.73    1.1426898 
   33000      372.312    12.714567    283938.16     1.144821 
   34000     370.4951   0.92032957    285743.49    1.1375881 
   35000    401.69127    6.6878558    282901.05    1.1490179 
   36000    365.67154   0.74496865     283412.5    1.1469444 
   37000     375.4469     0.794917    284866.37    1.1410907 
   38000    360.64397  -0.23433373    284422.92    1.1428699 
   39000    383.51511   -1.6552344     286942.3    1.1328354 
   40000     376.4344   0.59233349     287308.6     1.131391 
   41000    374.63981    8.2393956    285706.35     1.137736 
   42000    369.61182   -45.641012    291155.28    1.1164434 
   43000    386.42797   -1.5058636    290349.35    1.1195423 
   44000     391.5741    3.1678694     287901.1    1.1290627 
   45000      359.826   -45.602368    286848.95     1.133204 
   46000    371.09428   -1.6370346    286872.85    1.1331096 
   47000    375.82079  -0.99440629       285529    1.1384426 
   48000    404.36215    98.955937    282701.85    1.1498276 
   49000    370.66996   0.80979748    287467.68     1.130765 
   50000    382.67244    -10.56444    291629.52    1.1146278 
   51000    368.70246    3.7667178    291632.09     1.114618 
   52000    387.70735  -0.20937855    288913.12    1.1251077 
   53000    359.25263    95.584006     286817.2    1.1333295 
   54000    382.26005    5.5784783    290512.82    1.1189124 
   55000     370.1502  -0.28619924    288465.29    1.1268544 
   56000    376.82945    36.313102    285705.59     1.137739 
   57000    371.74452    3.4972124    287165.22     1.131956 
   58000     389.0275   -5.6353445    285117.75    1.1400847 
   59000    368.94343    3.4793693    283026.54    1.1485085 
   60000    374.99909    -1.979482    284064.83    1.1443106 
   61000    377.87077   -3.2882825     284323.7    1.1432687 
   62000    362.19199    5.0172223     286850.8    1.1331967 
   63000    376.65054   -71.247903    289339.04    1.1234515 
   64000    371.49917    2.2040458    284350.21    1.1431621 
   65000    385.07909   -7.5958884    283063.37     1.148359 
   66000    360.18111   -48.733218    287472.71    1.1307452 
   67000    382.67589   -4.0553752    284080.47    1.1442475 
   68000    368.61809     1.936995    285079.28    1.1402385 
   69000    352.82842   0.14965509    285975.34    1.1366658 
   70000    375.03151    1.5896992       289124    1.1242871 
   71000     370.4652   -7.7003511    287596.74    1.1302575 
   72000    392.19094   -76.208545    289805.48    1.1216433 
   73000    369.17748    2.8109788    284690.77    1.1417946 
   74000    369.31985    1.6002593    282862.58    1.1491742 
   75000    377.83299   -87.217597     288418.4    1.1270376 
   76000    369.20349     3.625865    283756.17    1.1455553 
   77000    366.08423    1.6642824    283629.95    1.1460651 
   78000    400.58078   -1.0515555    283962.02    1.1447248 
   79000    351.52364   -89.345269    287600.25    1.1302437 
   80000    341.53321    84.544697    277984.61    1.1693395 
   81000    378.38427    11.364383     279922.7    1.1612434 
   82000    360.50408   -3.4930366     279777.7    1.1618452 
   83000    393.61467   -0.1805649    279994.25    1.1609466 
   84000    359.18616  -0.97224796    282173.55    1.1519803 
   85000    376.49697   -144.15905    289304.87    1.1235842 
   86000    357.26011    1.2006867    287342.31    1.1312583 
   87000    370.42969   -50.409204    285959.72    1.1367279 
   88000    388.36472  -0.11664953     282937.7    1.1488691 
   89000    352.10331   -5.1974916    281678.26    1.1540059 
   90000    390.31065   -14.879458    283152.62    1.1479971 
   91000    359.73953   -2.0841676    283238.11    1.1476506 
   92000    391.31363   -78.210622    287929.82    1.1289501 
   93000    370.74739   -1.9001197    285247.31    1.1395669 
   94000    382.63503    15.147206    282964.16    1.1487617 
   95000    374.50637   -64.692048    284485.76    1.1426174 
   96000    358.70629    1.3660966    283304.22    1.1473828 
   97000    404.65695   0.90878423    284970.07    1.1406755 
   98000    371.40812   -2.4301628    286058.56    1.1363351 
   99000    383.31566   -5.6064926    286439.01    1.1348258 
  100000    362.04577    15.216777    284556.69    1.1423326 
  101000    379.65748   -47.820124    289099.56    1.1243821 
  102000    358.99877   -106.94588    291582.78    1.1148065 
  103000    377.72707   -34.901131    285173.13    1.1398633 
  104000    379.10288    8.4194683    283670.69    1.1459005 
  105000    366.81657    3.4353402    283208.82    1.1477693 
  106000    356.21214     9.153797    282826.84    1.1493194 
  107000    367.25953    18.782055    281183.33    1.1560372 
  108000    381.03118    112.71329    277879.92      1.16978 
  109000    391.87329   -17.933854    285576.16    1.1382546 
  110000    370.02533   -5.6074844    287213.89    1.1317641 
  111000    373.05242    2.0780029    283762.92     1.145528 
  112000    383.15359    5.0882065    286646.29    1.1340052 
  113000    378.97169    3.7113501    285444.99    1.1387777 
  114000    371.54962    3.3513258    286775.71    1.1334934 
  115000    358.40401   -3.4182091    287959.45    1.1288339 
  116000    390.47805    -4.993727    291487.74      1.11517 
  117000    346.87083    4.0841923    291573.56    1.1148418 
  118000    372.15236   -12.942949    291604.57    1.1147232 
  119000    362.51458   -30.090131    289772.79    1.1217698 
  120000    366.60946   -5.2465858     289834.5     1.121531 
  121000    383.80671    134.63514    282866.92    1.1491566 
  122000    370.94831    13.959742    288063.43    1.1284264 
  123000     377.9264   -25.616341    290221.44    1.1200357 
  124000    389.32173   -9.9771861    290598.28    1.1185833 
  125000     373.7351   -3.1687345    289420.69    1.1231346 
  126000    380.92087    1.7666326     289600.4    1.1224376 
  127000    372.38417   -3.0237546    292555.17    1.1111011 
  128000    385.43291  -0.54750947    289853.38    1.1214579 
  129000    368.78193   -2.3682151    286922.28    1.1329144 
  130000    390.58068    2.5317553    285654.21    1.1379436 
  131000     373.4272   -6.0633693    285180.68    1.1398331 
  132000    394.81356   -7.0320549    283115.11    1.1481492 
  133000    373.60477   -9.2308661     285192.2    1.1397871 
  134000    354.43971    -8.097979    285233.12    1.1396236 
  135000    388.58476    13.822324    288046.04    1.1284945 
  136000    357.20603   -9.7847606    288701.54    1.1259323 
  137000    378.66692   -84.889262    292707.56    1.1105227 
  138000    346.71003   -126.79018     292034.8     1.113081 
  139000    378.44814      41.0067     284861.7    1.1411094 
  140000    364.11854    12.369755    288137.03    1.1281382 
  141000    384.69587   0.66885987    289775.93    1.1217577 
  142000    364.77806   -1.4574822    288791.22    1.1255826 
  143000    371.11929   -2.6886057     292904.8    1.1097748 
  144000    343.51497    4.1275929    289974.01    1.1209914 
  145000    363.19094    2.4613545    287473.06    1.1307438 
  146000    390.43351   0.74620933     286695.1    1.1338121 
  147000    355.97304    2.4084394    287052.47    1.1324006 
  148000    371.95172     4.393313    286908.66    1.1329682 
  149000     387.5413    13.464563    286511.66    1.1345381 
  150000    361.48267     1.601397    285596.14     1.138175 
  151000    375.52543   -8.0291184    287338.28    1.1312742 
  152000    391.19947   -9.3638636    291110.02    1.1166169 
  153000    360.83043  -0.94039108    291194.97    1.1162912 
  154000    373.01249   -3.3562262    289846.38     1.121485 
  155000    380.05289    -2.041208    290928.31    1.1173144 
  156000     372.0599     5.857996    290035.87    1.1207523 
  157000    374.88389    -4.496044    288735.64    1.1257993 
  158000    368.54226   -5.2717715     290323.5     1.119642 
  159000    376.41277   -52.254725    291061.88    1.1168016 
  160000    364.58017   -70.882219    291887.53    1.1136426 
  161000    378.95141    13.116521    284927.78    1.1408448 
  162000    358.92791    5.7802661    286959.69    1.1327667 
  163000    378.62189  -0.72339477    291151.36    1.1164584 
  164000    369.33503   -8.5040514    291438.89    1.1153569 
  165000    365.40141   -114.17371    292276.18    1.1121617 
  166000    360.77264   -28.352096    290468.72    1.1190822 
  167000    381.54298   -3.7102563    288458.02    1.1268828 
  168000    376.87496   -6.0268074    288572.13    1.1264372 
  169000    365.62119   -1.8697735    288047.52    1.1284887 
  170000    377.93598    3.8376973    290511.82    1.1189162 
  171000    371.55626   -2.8485681    288315.26    1.1274408 
  172000    370.52169   -55.552776    288699.61    1.1259398 
  173000    383.89253     61.84751    282303.85    1.1514486 
  174000     369.8868   -7.1226244    286107.81    1.1361395 
  175000    376.16383   0.63334545    285845.47    1.1371822 
  176000    360.79674   -4.4223807    287434.11     1.130897 
  177000    381.58561    5.6628509    290867.57    1.1175477 
  178000    360.82168     39.72285    289884.52    1.1213375 
  179000    379.28157    114.72506    284941.69    1.1407891 
  180000    374.78359    3.2015913    289148.53    1.1241917 
  181000     377.0596    5.6995475    291827.39    1.1138721 
  182000    372.36876    12.460089    296323.59     1.096971 
  183000    379.66217   -110.96377    298335.61    1.0895728 
  184000    367.67482    13.160346    289250.66    1.1237948 
  185000    392.08175    3.1788094    287372.57    1.1311392 
  186000    361.72819    6.7570184    288815.63    1.1254875 
  187000    357.78964   -28.248647    287981.43    1.1287477 
  188000    378.26837    7.9578758    286634.73    1.1340509 
  189000     372.2733   -37.098331     286517.4    1.1345153 
  190000    378.79545    27.557533    285066.87    1.1402882 
  191000     391.2398    3.8936133    285043.72    1.1403808 
  192000    361.35286   -38.979635     285989.7    1.1366087 
  193000    383.82807    13.013237       287150     1.132016 
  194000    373.44687   -5.7537473    284952.84    1.1407445 
  195000    371.56554   -6.4194263    286116.12    1.1361065 
  196000    372.09039  -0.10151665    286659.78    1.1339518 
  197000    372.97415    7.3732617    287258.31    1.1315891 
  198000    367.49284   -8.7009125    286449.51    1.1347842 
  199000    376.92458     112.2053    283154.74    1.1479885 
  200000    372.62448   -9.3389156    285090.83    1.1401923 
  201000     370.7189   -6.6224336    284770.33    1.1414756 
  202000    377.49359   -8.0570307    286337.26    1.1352291 
  203000     371.8147    19.520715    282472.66    1.1507605 
  204000    374.09732    8.1619475    284695.08    1.1417773 
  205000    358.93961   -47.152691    286001.38    1.1365623 
  206000    368.54314   -20.588656    283206.86    1.1477772 
  207000    361.84373    5.1932205    282992.75    1.1486456 
  208000    361.56186   -57.529155    286885.19    1.1330609 
  209000    373.92941   -16.630969    285738.99     1.137606 
  210000    358.17291    7.8681447    283841.19    1.1452122 
  211000    385.93696    88.518084    281885.48    1.1531576 
  212000     371.6338    21.291682    284037.27    1.1444216 
  213000    371.41226   -8.2775562    284839.86     1.141197 
  214000    371.69378    30.069697    282996.13    1.1486319 
  215000    364.79209   -9.6347504    282012.08    1.1526399 
  216000    366.58538     1.858985    283550.88    1.1463847 
  217000    385.09105    1.3409163    283786.84    1.1454315 
  218000    354.19568    10.884396    285028.72    1.1404408 
  219000     384.4657     88.76776    281927.55    1.1529855 
  220000    380.62837    6.6399193    285055.76    1.1403326 
  221000    355.82825   -34.874056    285126.93     1.140048 
  222000    392.83834    7.3443057    282076.46    1.1523769 
  223000    369.92816    67.781672    278312.75    1.1679608 
  224000    383.27057    7.7963399    282931.47    1.1488944 
  225000    365.63212    114.80661    276571.62    1.1753136 
  226000     371.3383   -5.4025687    282850.32     1.149224 
  227000    381.13673    10.156845    285937.54     1.136816 
  228000    385.12325   -10.068155    289895.58    1.1212947 
  229000    368.22558    8.5722121    288903.03     1.125147 
  230000    361.88311   -75.079239    291103.34    1.1166426 
  231000    376.66941   -7.2451214    284732.41    1.1416276 
  232000    367.78306    67.941331    281202.21    1.1559595 
  233000    360.73055    8.1764139    285267.91    1.1394846 
  234000    376.94229    5.2464704    285800.43    1.1373614 
  235000    367.37684    16.400385    284785.23    1.1414159 
  236000    374.88649     6.180912    286880.42    1.1330797 
  237000    337.99838   -49.703981    289362.67    1.1233598 
  238000    370.49981   -32.619222    287179.41       1.1319 
  239000    377.51754     6.498057     287163.9    1.1319611 
  240000    380.57915   -71.921457    293306.11    1.1082564 
  241000     364.8526    12.740578    288729.21    1.1258244 
  242000    375.20936   -10.721262    290635.07    1.1184417 
  243000    360.59257    71.931226    285903.46    1.1369515 
  244000    377.39604    18.313447    284802.98    1.1413447 
  245000     367.7258    10.215338    284211.14    1.1437215 
  246000    371.73061   -32.159919    285026.06    1.1404514 
  247000    383.05349     2.103566     283864.6    1.1451177 
  248000     374.1937    15.606226    282514.01    1.1505921 
  249000    352.54946   -17.586103    284328.43    1.1432496 
  250000    373.23247    4.4596156     285933.6    1.1368317 
  251000    365.83208    75.651389    283777.38    1.1454697 
  252000    376.88436    12.411001     281721.6    1.1538284 
  253000    363.81737   -30.646499    285346.43     1.139171 
  254000    390.42132     22.08288    284482.02    1.1426324 
  255000    375.12647   -3.1588742    284227.53    1.1436555 
  256000    357.23303   -52.507778    286878.03    1.1330891 
  257000     378.3958    3.1124481    288056.02    1.1284554 
  258000    381.09649   -107.88333    294306.69    1.1044886 
  259000    358.11149    5.3751842    286663.92    1.1339354 
  260000    375.51364   -37.878533    287860.57    1.1292216 
  261000    381.05837    18.763024    286093.38    1.1361968 
  262000    376.98455    18.089021    289288.17    1.1236491 
  263000    374.78398    17.810876    289158.94    1.1241512 
  264000    373.57651   -8.8685692     288398.6     1.127115 
  265000    369.35579   -109.72002    293399.17    1.1079049 
  266000    375.91267    5.5817339    290877.75    1.1175086 
  267000    371.12601   -18.994739    289840.63    1.1215073 
  268000    393.83111   -9.2227421    292368.48    1.1118106 
  269000    368.07476     31.17633    291302.05    1.1158809 
  270000    366.34509     7.120399    294909.02    1.1022328 
  271000    377.01392   -7.0238164     291821.8    1.1138934 
  272000    356.66062    18.281959    289768.55    1.1217863 
  273000    376.45241    9.7191311    293095.75    1.1090519 
  274000    383.21658    14.841561    292577.04    1.1110181 
  275000    360.48872    -55.52228    292015.14    1.1131559 
  276000    381.51348   -2.3089161    288315.68    1.1274391 
  277000    357.69431    36.217988    286817.16    1.1333296 
  278000    377.55409    35.813212    288582.08    1.1263983 
  279000    388.60123    10.927815    288786.88    1.1255995 
  280000    366.82304    11.705227    287451.96    1.1308268 
  281000    381.82878   -1.2909218    291732.02    1.1142362 
  282000     369.6601   -19.767719     288677.3    1.1260268 
  283000    355.90963   -11.433986    287585.92    1.1303001 
  284000    360.05079    9.5910647    287349.02    1.1312319 
  285000    361.30906    57.706336    285695.02     1.137781 
  286000    372.43364    8.9153399    292758.28    1.1103303 
  287000    362.75756   -20.617237    295429.59    1.1002905 
  288000    357.76183   -4.5227166    292446.64    1.1115135 
  289000    391.69757     -1.29021    290405.85    1.1193245 
  290000    359.20101   -42.178313    290199.33    1.1201211 
  291000     355.5123   -6.3679395    288356.87    1.1272781 
  292000    373.83186  -0.86941225    286535.17     1.134445 
  293000    365.54637    3.6629295    290701.55    1.1181859 
  294000    372.62715     23.04643    291957.43     1.113376 
  295000    370.05066   -5.3591325    291295.25    1.1159069 
  296000    370.09533    26.830666    289227.65    1.1238842 
  297000    372.20385    14.963054       287274    1.1315273 
  298000    378.31598   -4.9744864    289181.71    1.1240627 
  299000    372.03716   -21.872564    285771.54    1.1374764 
  300000    359.65266    12.241227     286799.7    1.1333986 
  301000    364.48228    3.8420903    287644.75    1.1300689 
  302000     384.5583     7.569813    289155.69    1.1241639 
  303000    364.10691    11.222917    289468.41    1.1229494 
  304000    376.01193   -24.107377    290576.76    1.1186661 
  305000    368.21561    15.292682    284056.24    1.1443451 
  306000    379.40789   -17.771485    287220.89    1.1317365 
  307000    371.71458    2.4621067    287836.58    1.1293158 
  308000    375.55852    40.880225    286291.17    1.1354118 
  309000    376.88578   -6.1122238    287032.52    1.1324793 
  310000     350.1439    18.114687    285339.79    1.1391975 
  311000    371.46436   -8.1036772    287811.81    1.1294129 
  312000    374.80652   -87.281678    294043.01     1.105479 
  313000    365.30883    6.7130432    289691.16     1.122086 
  314000    391.88402    39.990079    285822.34    1.1372742 
  315000    369.15613   -8.9862918    289005.49    1.1247481 
  316000    379.50093    37.537006    286432.05    1.1348534 
  317000    368.96491   -19.807147    287300.97    1.1314211 
  318000     381.4525   -12.534774    288157.01    1.1280599 
  319000    386.23042   -50.524612    289996.57    1.1209042 
  320000    376.91972    10.753827    290110.05    1.1204658 
  321000    356.47219   -32.452475    290670.31    1.1183061 
  322000    386.16645   -11.135708    289724.64    1.1219563 
  323000     391.3971   -12.701605     286158.5    1.1359382 
  324000    355.15594   -28.095951    290521.04    1.1188807 
  325000    378.21962   -7.6287912    288473.08     1.126824 
  326000     370.6603   -98.687973    291588.43    1.1147849 
  327000    380.66286   -9.8585434    288153.74    1.1280727 
  328000    363.48216   -19.558043    286509.77    1.1345455 
  329000    374.99047    31.389921    284942.48     1.140786 
  330000    366.13054   -5.9416506    283574.96    1.1462873 
  331000    381.09566  0.089575865    285461.37    1.1387123 
  332000    374.12434    3.6756936    285698.24    1.1377682 
  333000    375.10808   -10.466614     286323.7    1.1352828 
  334000    377.95888    13.279689    285050.63    1.1403531 
  335000    371.46045   -1.2998355    287520.41    1.1305576 
  336000    391.09869    123.80086    283489.53    1.1466328 
  337000    385.29821   -1.6872897     288526.1    1.1266169 
  338000    357.29941   -12.535522    288763.09    1.1256923 
  339000    374.16375    -22.56368     286647.2    1.1340016 
  340000    393.84828     6.831324    287962.71    1.1288211 
  341000    363.71877    111.76082     280991.5    1.1568264 
  342000    380.55326   -8.9853297     284761.8    1.1415098 
  343000    361.86293   -46.405245    286951.63    1.1327985 
  344000    378.04111   -5.0018645    284277.36     1.143455 
  345000    368.24279    14.703972    282774.02    1.1495341 
  346000    401.18995    24.696701    285928.05    1.1368538 
  347000     366.4715    7.9414289    287960.52    1.1288297 
  348000    380.00473   -19.156553     288020.9     1.128593 
  349000    365.86178   -6.9368874     288416.3    1.1270458 
  350000    385.12964   -77.493019    290403.76    1.1193325 
  351000    345.97766     9.994827    285678.22    1.1378479 
  352000    365.06319    9.7958666     284071.8    1.1442825 
  353000     379.0438    11.999083    280885.84    1.1572615 
  354000    364.17677   -35.255088     281864.5    1.1532434 
  355000    379.95535   -20.080769    283937.42     1.144824 
  356000    364.69918    14.790066    285286.71    1.1394095 
  357000    389.71851    36.787134    286336.68    1.1352314 
  358000    340.19193    3.7051349    285258.96    1.1395203 
  359000     376.3645    36.178552    284661.45    1.1419122 
  360000    376.60327    2.7756086    287973.82    1.1287775 
  361000    378.31404    15.034787     286177.2     1.135864 
  362000    371.96658   -3.0101122    286429.56    1.1348633 
  363000    379.59902   -65.902806    286721.95    1.1337059 
  364000    364.04075   -8.7427455    282942.24    1.1488507 
  365000    373.67592   -54.863863    286364.46    1.1351213 
  366000    377.70825   -6.7975478    283418.11    1.1469217 
  367000    363.78566    15.560988    283022.28    1.1485258 
  368000    382.39474    34.441655    283008.29    1.1485825 
  369000    360.22603     11.44712    282391.53    1.1510911 
  370000    368.46587   -40.733133    284362.34    1.1431133 
  371000    373.72192    9.1942545    281993.72     1.152715 
  372000    382.07595    -6.359523    285854.21    1.1371474 
  373000    373.22723 -0.072446356    287607.71    1.1302144 
  374000    373.41353    17.491139    285994.15     1.136591 
  375000    373.25083   -29.752232    287960.33    1.1288304 
  376000    377.08004   -3.8463963    287192.57    1.1318481 
  377000    367.80947    122.93502    282618.31    1.1501674 
  378000      362.811   -9.8699815    289137.07    1.1242363 
  379000    379.52699     29.40848    286465.68    1.1347201 
  380000    367.77425   0.12425329    286152.26     1.135963 
  381000    374.00729    9.4583496    287116.94    1.1321463 
  382000    355.40711    -60.43545    290716.29    1.1181292 
  383000    372.11388     2.936562     289411.9    1.1231687 
  384000     361.8224   -84.734561    291191.51    1.1163045 
  385000    378.28495   -1.9135316    287621.93    1.1301585 
  386000    383.12406    -41.80736    289109.43    1.1243437 
  387000    366.74615   -2.3499836    285573.77    1.1382641 
  388000    368.60063   -15.385873    283057.13    1.1483843 
  389000    382.29403    63.639168     283670.7    1.1459005 
  390000    380.60323    1.9013092    283025.46    1.1485129 
  391000    378.94361    79.327046    278237.19     1.168278 
  392000      362.376    9.7595686    281907.89    1.1530659 
  393000    385.43425    13.599958    283034.97    1.1484743 
  394000    370.70503    5.8280829     284010.2    1.1445307 
  395000    362.34084    21.089729    285526.71    1.1384518 
  396000    355.04986    13.502662    280705.47    1.1580052 
  397000    385.79876   -17.086715    281854.21    1.1532855 
  398000    367.59334    24.103055    281262.92      1.15571 
  399000    377.12033   -2.3099118    284902.11    1.1409476 
  400000    377.25128    -3.700907    284826.78    1.1412494 
  401000    371.91815   -11.477073    286947.96     1.132813 
  402000    366.88487    49.473538    284391.79    1.1429949 
  403000    373.32012    11.020581     287507.7    1.1306076 
  404000    372.28055     101.2683    284824.24    1.1412595 
  405000     364.7315    3.7293937    287039.16    1.1324531 
  406000    374.71108    6.4658649    284300.74     1.143361 
  407000    352.88013   -12.392132    284600.79    1.1421556 
  408000    383.11467   -7.6939306    284860.12    1.1411158 
  409000    368.37274   -89.716087    289331.44     1.123481 
  410000    364.97038   0.68466957    287318.45    1.1313523 
  411000    387.07538    4.8805854    286546.96    1.1343983 
  412000     370.3816    46.543598    284090.04     1.144209 
  413000    374.68465   -9.4082482    285710.71    1.1377186 
  414000    359.13668   -83.266371    292657.21    1.1107137 
  415000    388.83646  -0.57750312    287254.29     1.131605 
  416000    361.99515   -5.9387499    284141.25    1.1440028 
  417000    378.33091   -13.738063    285562.01     1.138311 
  418000     368.9574   -18.002845    284506.68    1.1425334 
  419000     370.1513   -31.474954    285502.38    1.1385488 
  420000    362.78043  -0.75289419    284809.81    1.1413174 
  421000    389.88938    82.555829    281511.53    1.1546894 
  422000     375.6976   0.46178654    285733.51    1.1376278 
  423000    375.21298    80.712088    283137.96    1.1480565 
  424000    369.11636    16.476998    288061.47    1.1284341 
  425000    388.19648   -15.009537    291916.78     1.113531 
  426000    369.67046    72.341087    285763.88    1.1375069 
  427000    380.70059   -2.4488666    285337.83    1.1392053 
  428000    361.67263    10.929615    282897.39    1.1490328 
  429000    376.93761    2.6659502    281993.08    1.1527176 
  430000     367.7188   -1.1672692    281139.79    1.1562162 
  431000    379.00679   -11.057958    283112.72    1.1481589 
  432000     373.6425   -24.144215    283979.06    1.1446562 
  433000    380.64767   -12.006427    285699.92    1.1377615 
  434000    359.72696    -16.67226    284023.38    1.1444775 
  435000    374.64363   -66.708254    286778.11    1.1334839 
  436000    375.05944  -0.96972439    283301.29    1.1473946 
  437000    364.02883    7.0391585    286332.04    1.1352498 
  438000    379.84718   -27.159816    287446.87    1.1308468 
  439000    358.24691   -11.183266    286080.74     1.136247 
  440000    378.89704    23.663446     285934.4    1.1368285 
  441000    366.26447   -14.164382    286695.56    1.1338103 
  442000    378.94403    7.3802465    285465.35    1.1386964 
  443000    366.31703    9.5314847    287176.52    1.1319114 
  444000    352.81405     28.06302    282809.59    1.1493895 
  445000    387.83245    11.379129    283307.97    1.1473676 
  446000     364.0258     63.36657    281613.33     1.154272 
  447000     386.5593    2.7800591    283469.93     1.146712 
  448000    362.17907   -3.2980196    286278.19    1.1354633 
  449000    380.14691    76.693069    281670.07    1.1540395 
  450000    371.77378    17.806025    286072.85    1.1362784 
  451000    377.47719    4.5407758    283926.77     1.144867 
  452000    381.23333   -107.79476    289774.89    1.1217617 
  453000    360.38057    -14.21919    284869.78    1.1410771 
  454000    389.76938    15.954901    285319.33    1.1392792 
  455000    372.17887   -106.18378    291185.96    1.1163257 
  456000    370.28796    15.965577    287097.88    1.1322214 
  457000    364.10083   -14.795133    287609.89    1.1302059 
  458000    368.09943   -25.063954    291061.43    1.1168034 
  459000    387.78928    6.5256561     288621.2    1.1262457 
  460000    376.64361   -4.0087086     290246.7    1.1199382 
  461000    366.11394    46.547874    287612.47    1.1301957 
  462000    378.60608   -6.1134536    288375.64    1.1272047 
  463000    370.74061    121.26731    282958.85    1.1487832 
  464000    363.29397   -8.8492772    291693.81    1.1143822 
  465000    383.16523    33.054733    288133.41    1.1281523 
  466000    369.76868    -4.900067    289819.64    1.1215885 
  467000    383.38614   -3.4885991     291378.4    1.1155885 
  468000    361.64905     34.10565    287271.84    1.1315358 
  469000    382.38711   -4.0122817    288104.42    1.1282659 
  470000    370.64828    -42.89209    289997.19    1.1209018 
  471000    367.82767    3.1988932    289904.88    1.1212587 
  472000    353.73549      67.3922     285834.8    1.1372247 
  473000    380.32542   -4.3571103    288737.02    1.1257939 
  474000    375.05626   -20.411911    286980.51    1.1326845 
  475000    352.51586    -10.12579    284337.78    1.1432121 
  476000    381.23423   -13.187235     287783.8    1.1295229 
  477000    361.75381   -6.7813377    284556.64    1.1423328 
  478000    390.15495  -0.13783822    286577.64    1.1342768 
  479000     352.3498   -101.10875    289367.32    1.1233417 
  480000    381.19414    3.1392385    285284.32     1.139419 
  481000    407.08683   -40.873552     287533.5    1.1305061 
  482000    363.02953   -8.1100571    284597.99    1.1421668 
  483000    383.67477    23.046589    283047.69    1.1484226 
  484000    356.68347    40.610203    282324.51    1.1513644 
  485000    385.17169    4.9997118    283540.49    1.1464267 
  486000    362.21128    98.460341    282217.66    1.1518003 
  487000    392.08917   -8.6934217    286419.35    1.1349037 
  488000    357.57588   -6.3475088    284615.35    1.1420972 
  489000    357.83562   -17.567902    282737.24    1.1496836 
  490000    375.94867     13.03251    284539.46    1.1424018 
  491000    355.13845     76.17716    284109.66      1.14413 
  492000    365.57108   -2.4210622    285255.59    1.1395338 
  493000    385.55249   -10.361609    286503.99    1.1345684 
  494000    365.92977    20.767271     286092.7    1.1361995 
  495000    379.29172    11.256444    287609.06    1.1302091 
  496000    349.97098   -1.8972805    285834.99    1.1372239 
  497000    390.88678    10.410714    283651.11    1.1459796 
  498000    364.28702   -5.3251388     284378.3    1.1430492 
  499000     375.5906    9.9664864    284252.75     1.143554 
  500000    374.88154    6.2244215     286694.9    1.1338129 
  501000    362.86272    47.092138    284789.02    1.1414007 
  502000     389.3854    10.729796    287124.33    1.1321172 
  503000    364.95939    -13.53001    283669.16    1.1459067 
  504000    360.46697   -3.6857483    283566.43    1.1463218 
  505000     386.6855     30.54114    283080.73    1.1482886 
  506000    358.62538   -2.1873658    281405.28    1.1551254 
  507000    375.87497    14.270632    282387.31    1.1511083 
  508000    364.02334    -2.364743    283816.17    1.1453131 
  509000    375.05997   -7.9529651    287165.82    1.1319536 
  510000    357.40035   -103.78044    293790.48    1.1064293 
  511000    379.39784    5.5159692    286918.09    1.1329309 
  512000    377.62852   -61.776853    287375.12    1.1311292 
  513000    357.75723    16.223388    282835.76    1.1492832 
  514000    390.44975    10.036156    284558.63    1.1423248 
  515000    355.80514    -44.76268       285599    1.1381636 
  516000    382.55444   -8.7181479    285483.84    1.1386227 
  517000    375.34247    113.43027     285951.4    1.1367609 
  518000    378.42798   -2.4671102    287280.93    1.1315001 
  519000    369.90657    28.328569    286241.13    1.1356103 
  520000     381.3766    6.5669283     288931.2    1.1250373 
  521000    366.30048    16.273473     288325.7       1.1274 
  522000    378.21793   -28.531764    292095.91    1.1128481 
  523000    366.67616   -1.8015447    287155.65    1.1319937 
  524000    370.19933   -62.737814    293657.85     1.106929 
  525000    380.57761   -6.1110487    292207.43    1.1124234 
  526000    370.97197   -37.760849    292806.59    1.1101471 
  527000    378.31505   -1.7818562    286140.91    1.1360081 
  528000    406.04305    55.831888    286167.57    1.1359022 
  529000    371.45588   -4.1286156    289681.43    1.1221237 
  530000    367.07444   -55.040621    294345.73    1.1043421 
  531000    380.97156   -8.7190734    291962.92     1.113355 
  532000    368.12182   -12.047593    292152.12     1.112634 
  533000    374.04099    5.2527489    289406.33    1.1231903 
  534000    369.63369    -106.0657    295788.32    1.0989561 
  535000    356.12342    8.2466772    289695.46    1.1220693 
  536000     390.1402    89.687807    284285.39    1.1434227 
  537000    371.88727    8.4136725    287934.74    1.1289307 
  538000    360.80081     6.611475     286283.2    1.1354434 
  539000    372.07142   -7.1162687    287558.72     1.130407 
  540000    369.19788    56.642706    281134.89    1.1562363 
  541000    381.49693     12.12342    280893.41    1.1572303 
  542000    374.40181   -25.064624    282819.19    1.1493505 
  543000     373.0162    16.071996    282875.02    1.1491237 
  544000    378.35134    25.790072    282127.34     1.152169 
  545000       349.76   -16.312788    285522.07    1.1384702 
  546000    364.75017    18.875907    285487.04      1.13861 
  547000    383.36898   -26.836623    285210.78    1.1397128 
  548000    360.89806    1.6515554    281065.27    1.1565228 
  549000    396.40918   -43.192897    285414.83     1.138898 
  550000    360.87071   -4.2966151    283430.16    1.1468729 
  551000    384.02645   -4.2524549    284919.74     1.140877 
  552000    368.07111    9.6178579    283592.22    1.1462176 
  553000    364.39031   -17.855092    287131.95    1.1320871 
  554000    373.45863    7.8658151    284461.27    1.1427158 
  555000    386.49234    74.213947    282349.47    1.1512626 
  556000    379.14202    8.9737263    285433.51    1.1388235 
  557000    361.45924    64.322309    285624.39    1.1380624 
  558000    362.97625   -8.7318791    287177.12     1.131909 
  559000    383.09706   -58.916852    290829.99    1.1176921 
  560000    347.36688    1.0954978     284025.4    1.1444694 
  561000    374.96512   -62.660575    287551.57    1.1304351 
  562000    367.37379    4.3499339    285556.84    1.1383316 
  563000    375.15835   -105.21831    290331.92    1.1196095 
  564000    368.14532    2.5393892    286024.63    1.1364699 
  565000    371.14549   -101.10139    287849.05    1.1292668 
  566000    369.86712   -6.9029059    283269.46    1.1475236 
  567000    379.89952    42.467486    282154.73    1.1520572 
  568000    366.57638   -5.5278684    284003.74    1.1445567 
  569000    368.92582   -1.0539165    285450.57    1.1387554 
  570000    373.62103   -57.330319    290683.59     1.118255 
  571000    371.58097       6.9883    287660.49     1.130007 
  572000    392.74553    20.421865    284733.54    1.1416231 
  573000    375.99389    37.530815    282740.34    1.1496711 
  574000    370.94354    2.2872471     285473.4    1.1386644 
  575000    379.33778   -52.891792    287698.73    1.1298569 
  576000    369.94164     2.298834    283526.24    1.1464843 
  577000    371.92578    13.172971    284978.69     1.140641 
  578000    372.47545   -90.285896    289877.57    1.1213644 
  579000    377.75655   0.76420141    287388.74    1.1310756 
  580000    380.09525   -3.8830642    286649.89    1.1339909 
  581000    363.72933   -2.7906294    287056.09    1.1323863 
  582000    377.59499    -6.605718    285328.02    1.1392445 
  583000    361.16826    87.411729    280535.22    1.1587079 
  584000    359.57133   -2.6265083    286021.58     1.136482 
  585000    371.81649   -6.5919084    284806.23    1.1413317 
  586000    378.86763   -45.896874    285181.15    1.1398312 
  587000    369.59478     8.946327    278724.67    1.1662347 
  588000    379.27653     97.73266    276932.58    1.1737816 
  589000    373.35001    11.542527       285569    1.1382831 
  590000     390.3837    10.223947    285449.11    1.1387612 
  591000    384.00173    127.36857    281191.57    1.1560033 
  592000    362.80532   -3.9681198    285192.85    1.1397845 
  593000       388.76 -0.083675668    284676.16    1.1418532 
  594000    361.21905    -12.00683    287254.45    1.1316044 
  595000    387.50336    9.9861594    286250.32    1.1355739 
  596000    348.68304    5.4926182    285414.36    1.1388999 
  597000    390.26057    24.867663    286236.65    1.1356281 
  598000    371.25477    16.724285    289598.21    1.1224461 
  599000    354.51853   -2.4585085    285471.22    1.1386731 
  600000     387.3748   -15.696983    285625.84    1.1380566 
  601000    356.11165    90.273164    282449.45    1.1508551 
  602000    395.38858    11.314657    286723.09    1.1337014 
  603000    370.36004     5.980923    285829.78    1.1372446 
  604000    375.85083    38.843119     287929.1    1.1289529 
  605000    369.40895    -55.48056    292829.95    1.1100585 
  606000    371.06726    9.0181325    289014.46    1.1247132 
  607000    375.87627    6.6028169    287625.56    1.1301443 
  608000    370.65959    10.233137    286807.37    1.1333683 
  609000    378.85981    73.482404    282562.24    1.1503957 
  610000     370.9479   -10.255691     286142.7     1.136001 
  611000    366.05384    7.2548219    285350.73    1.1391538 
  612000    394.60519    -9.490751    289242.61     1.123826 
  613000    366.34292   -114.34965    292986.93    1.1094638 
  614000    372.32743   -4.5708411    286857.58    1.1331699 
  615000    366.92218   -3.6808697    284472.34    1.1426713 
  616000    375.44428    13.588272    284238.05    1.1436132 
  617000    371.18594   -100.43136    288225.05    1.1277937 
  618000    360.07727    12.561232    282725.12    1.1497329 
  619000    370.37087   -6.2405956     283618.7    1.1461105 
  620000    377.61729  -0.40425022    286931.47    1.1328781 
  621000    368.08462    58.748522    285098.14    1.1401631 
  622000    356.52572    20.790793    287390.01    1.1310706 
  623000    382.58173   -2.1001759    285767.93    1.1374908 
  624000    365.62401   -20.322264    288432.53    1.1269824 
  625000    382.72393   -37.644548    288363.54     1.127252 
  626000    377.98728    2.7890641    285762.54    1.1375122 
  627000    369.18584    17.135709    284239.72    1.1436065 
  628000    379.20272   -17.060924    285905.84    1.1369421 
  629000    377.27227   -6.5025046    286742.66    1.1336241 
  630000    367.48484     69.30477    282283.74    1.1515307 
  631000     381.5602    25.977985    283703.49     1.145768 
  632000     363.3469    5.8944625    282339.39    1.1513037 
  633000     393.9215   -32.956978    286935.77    1.1328611 
  634000    358.77019   -17.945415    288218.53    1.1278192 
  635000    372.08157    7.4949087     285546.5    1.1383728 
  636000    374.40904   -28.474662    291175.58    1.1163655 
  637000    362.48069   -45.069737    291056.82     1.116821 
  638000    374.25304    -6.007039    290185.47    1.1201746 
  639000    362.37455   -3.0947237    287531.97    1.1305121 
  640000    376.75929   -30.581613     289924.1    1.1211844 
  641000    366.71675   -6.4913979    287784.51    1.1295201 
  642000    378.73803    44.348154     284239.2    1.1436086 
  643000    367.12483   -32.908532    286732.53    1.1336641 
  644000      388.759   -6.1865452    285319.37    1.1392791 
  645000    372.77419    3.8841441    286684.41    1.1338544 
  646000    378.75195    19.161069    287543.45     1.130467 
  647000    341.35756    3.8290341    290133.55     1.120375 
  648000    359.53028   -5.9460409    291215.51    1.1162124 
  649000     383.8016     36.09164    289159.54    1.1241489 
  650000    363.65639    -19.24577    290667.62    1.1183164 
  651000    376.00699   0.85428183    290200.96    1.1201148 
  652000    367.52975    12.690057    288667.62    1.1260646 
  653000    367.68464    69.936886    287312.86    1.1313743 
  654000    379.06421   -7.5568145    292340.56    1.1119168 
  655000    365.52995   -8.7051401    291166.18    1.1164016 
  656000    369.10341    126.82725    283989.71    1.1446132 
  657000    366.19767    8.9086854    288201.26    1.1278868 
  658000    377.87133   -11.818119    289790.26    1.1217022 
  659000    365.13511   -80.042904    293032.26    1.1092921 
  660000    387.09936   -6.6564494    289740.19    1.1218961 
  661000    364.55996    14.156047    289944.29    1.1211063 
  662000    356.74317   -100.25817    293909.73    1.1059803 
  663000    381.38258   -1.2299623    288196.24    1.1279064 
  664000      359.459   -2.4729593    291506.79    1.1150971 
  665000     389.0246   -90.610958    294136.02    1.1051295 
  666000     373.9588   -9.7178309     287296.2    1.1314399 
  667000    373.98619   -7.5714424    285761.51    1.1375163 
  668000    361.71224   -83.915618    290126.59    1.1204019 
  669000    355.05866    13.598078    286065.53    1.1363074 
  670000    388.03236    -3.776071    288505.05    1.1266991 
  671000    369.23595    113.46397     284862.4    1.1411067 
  672000    369.98692   -2.1265527    292397.27    1.1117011 
  673000    380.81593    4.6561982    293642.29    1.1069876 
  674000     368.9408    8.4524438    292486.05    1.1113637 
  675000    382.50577   -10.977298    293662.02    1.1069133 
  676000    362.26943   -50.311023    296827.94    1.0951071 
  677000    388.42921   -4.9137598    294549.88    1.1035767 
  678000      357.342    -97.92475    298185.05     1.090123 
  679000    387.23574   -4.8358895    295148.67    1.1013378 
  680000    364.44381   -1.7874029    288932.01    1.1250341 
  681000    375.10774    16.920441    284332.63    1.1432328 
  682000    375.87954    17.792234    283755.56    1.1455577 
  683000    375.01195    39.761973    283606.36    1.1461604 
  684000    386.69003   -1.4107971    285220.85    1.1396726 
  685000    374.75837    69.100405    283890.48    1.1450133 
  686000     385.7086   -5.4832435    286871.28    1.1331158 
  687000    364.18947    -20.87027    288405.17    1.1270893 
  688000    391.65758   -8.2605596    290266.34    1.1198625 
  689000    373.89521    8.7231153    286847.06    1.1332115 
  690000    367.61546    25.489887    285978.29     1.136654 
  691000    370.36105   -8.0828329    287751.82    1.1296484 
  692000    388.34093   -83.484418    290444.92    1.1191739 
  693000    368.11369    2.2706483    286111.02    1.1361267 
  694000    369.68566   -74.471186    289358.07    1.1233776 
  695000    378.37289    9.3442943    285988.35    1.1366141 
  696000     366.6531    -23.66247    288895.07     1.125178 
  697000    369.27833    18.438865    284189.37    1.1438091 
  698000    374.28898   -4.9137418     284510.5     1.142518 
  699000    373.15289   -101.26038    287195.14     1.131838 
  700000    377.32384    7.2428279    281153.05    1.1561617 
  701000    366.80563    34.490624    282678.29    1.1499234 
  702000    378.68444    13.213735     284483.7    1.1426257 
  703000    390.98126   -5.3514329    285104.68     1.140137 
  704000    361.29768    -15.28511    284195.91    1.1437828 
  705000    361.22232   -11.177308    285631.76     1.138033 
  706000    385.51094  -0.43244128     289225.1    1.1238941 
  707000    355.20877    19.535135    287967.17    1.1288036 
  708000    375.11911    5.0455574    286985.67    1.1326641 
  709000    377.21754    8.0097355    285972.14    1.1366785 
  710000    364.18587   -22.822335    288961.86    1.1249179 
  711000    387.67153    4.8560457    287051.65    1.1324038 
  712000    377.99723    4.7110978    284356.98    1.1431349 
  713000    373.11978   -13.651015    286666.62    1.1339248 
  714000    359.03261   -3.6112163    285420.65    1.1388748 
  715000    385.27087   -25.486708    287986.03    1.1287297 
  716000    374.14888    17.845128    283237.87    1.1476516 
  717000     372.9868    4.9970391    284941.83    1.1407886 
  718000    387.66839    21.386578    284560.77    1.1423162 
  719000    364.57283   -13.762722    286599.09    1.1341919 
  720000    377.51216   -8.2363798     285120.8    1.1400725 
  721000    370.14939   -67.962056    287077.15    1.1323032 
  722000    386.02777   -7.4025504     285449.8    1.1387585 
  723000    383.85371    43.427731       286133    1.1360395 
  724000    362.68028    4.4608037     288033.2    1.1285448 
  725000    371.70754   -11.576424    288951.77    1.1249572 
  726000     390.7891    8.1267929    286704.28    1.1337758 
  727000    354.91081    -2.310363     286836.4    1.1332536 
  728000    375.32538    39.645378    284392.26    1.1429931 
  729000    357.72655    21.050304     286834.5    1.1332611 
  730000    382.43936   -8.9369887    284928.04    1.1408438 
  731000     359.3448    -29.42201    286268.84    1.1355004 
  732000    377.20607    8.2584439    287921.02    1.1289845 
  733000    361.75348    55.887466    289377.34    1.1233028 
  734000    358.61421    8.8267267    290155.39    1.1202907 
  735000     386.7984 -0.090633129    293208.65    1.1086248 
  736000    376.82449    11.097253    291889.22    1.1136361 
  737000    373.91033   -6.2233568    289295.55    1.1236204 
  738000    356.95998    41.533526    288055.43    1.1284577 
  739000    388.82161    11.475686    287604.15    1.1302284 
  740000    372.96832   -6.8301004    289776.73    1.1217546 
  741000    372.20223    1.0649724    289305.14    1.1235831 
  742000    389.82675    26.166262    289013.82    1.1247157 
  743000    380.18477    11.171795    289271.63    1.1237133 
  744000    379.68581   -2.2530412    289243.84    1.1238213 
  745000    348.51139   -26.156965    289713.74    1.1219985 
  746000    374.55734    9.8407481    286771.75    1.1335091 
  747000    387.46458   -92.207961    293571.72    1.1072537 
  748000    365.89475   -6.7013341    291661.25    1.1145066 
  749000    380.45588    57.848083    288482.93    1.1267855 
  750000    366.23046    9.3006154    287785.83    1.1295149 
  751000     374.6699   -9.1695102    289319.45    1.1235276 
  752000    369.36679   -76.629325    290570.07    1.1186919 
  753000    390.32531    8.9486067    287212.51    1.1317696 
  754000    359.05802    -14.61892    288101.73    1.1282764 
  755000    382.32394    15.128643    287093.09    1.1322403 
  756000    366.00013   -8.4285207    287579.75    1.1303243 
  757000    368.75795   -46.724847    287863.36    1.1292107 
  758000    382.46851   -6.7826844    286533.44    1.1344518 
  759000    364.68461    7.6255273    287457.79    1.1308039 
  760000    388.43292    23.206806    288148.18    1.1280945 
  761000    386.01607   -8.1091128    289653.15    1.1222332 
  762000    363.57537   -32.543985    292434.06    1.1115613 
  763000    385.20594   -6.6552044    289101.89    1.1243731 
  764000    374.31289    24.328536    287534.42    1.1305025 
  765000    377.01549    1.1983581    290478.85    1.1190432 
  766000    364.66555    49.070702    288918.09    1.1250884 
  767000    368.13649   -13.463992    289937.68    1.1211319 
  768000    363.40241   -7.0143529    288127.29    1.1281763 
  769000    386.46912    51.304152     285631.1    1.1380357 
  770000     363.1367    7.5188515    285352.26    1.1391477 
  771000    379.06886   -37.058753     287639.4    1.1300899 
  772000    358.03399   -6.9144684    285235.96    1.1396122 
  773000    375.30532     2.586136    282963.89    1.1487628 
  774000     364.0934   -79.498956    285388.37    1.1390036 
  775000    358.67684    -17.66189    286481.79    1.1346563 
  776000    390.08194    3.1100568    283744.98    1.1456005 
  777000    364.04194   -35.142222    284613.22    1.1421057 
  778000     378.6208   -22.348475    284754.07    1.1415408 
  779000    365.92138    8.4714361    279490.03    1.1630411 
  780000    376.23986    40.082681     277479.9    1.1714664 
  781000     365.1699    34.529165     280496.2    1.1588691 
  782000    385.65993     7.710586    283359.84    1.1471576 
  783000    354.43272    37.729472    280127.08    1.1603961 
  784000    379.20819   -10.742926    281963.49    1.1528386 
  785000    363.65822    1.1851264    280414.89    1.1592051 
  786000    396.79605    15.984406    283609.34    1.1461484 
  787000    372.64994    14.870639    284214.84    1.1437066 
  788000    373.63041   -5.2105127    285274.92    1.1394566 
  789000    358.24923    -7.161331    282882.32     1.149094 
  790000    384.78035     57.55041    279164.36    1.1643979 
  791000    357.05229   -3.7593913    281893.06    1.1531266 
  792000    362.52822    2.4955561    286060.29    1.1363282 
  793000    395.42386   0.93786798     287663.9    1.1299937 
  794000    377.27947    -12.01592    288066.36    1.1284149 
  795000    381.97814    24.217516    288013.26     1.128623 
  796000    370.73207   -2.1185702    289970.59    1.1210046 
  797000    378.22859    -12.64308    288763.62    1.1256902 
  798000    375.56794    4.7138501    290608.89    1.1185425 
  799000    359.77163   -4.8433793    290372.55    1.1194528 
  800000     381.4555    5.6392108    290012.59    1.1208423 
  801000    362.80082   -54.231416    293175.05    1.1087519 
  802000    378.90022   -6.9785276    293745.14       1.1066 
  803000    376.58328   -1.9742535    291884.44    1.1136544 
  804000    357.42165   0.61585081    290451.21    1.1191497 
  805000    381.37927    32.272742    288638.21    1.1261793 
  806000    358.03622   -6.2368958    288433.25    1.1269796 
  807000    383.61022   -10.026775    289034.94    1.1246335 
  808000     381.0074   -101.00964    292852.78     1.109972 
  809000    357.48522   -4.8324997     286637.5      1.13404 
  810000     375.2259    4.3690052    283259.38    1.1475644 
  811000    344.29752   -51.097629    285787.97     1.137411 
  812000    375.16139    17.147318     284012.8    1.1445202 
  813000    356.29952  -0.22500225    284024.19    1.1444743 
  814000     387.0049     2.538812    281557.98    1.1544989 
  815000    370.48936    55.840162    280666.12    1.1581675 
  816000    350.69639   -12.550058    282967.73    1.1487472 
  817000    378.45108   -2.7860715    286030.59    1.1364462 
  818000    360.30872   -27.848719    288263.49    1.1276433 
  819000    375.15926   -85.681178    292463.52    1.1114493 
  820000    369.75713   -4.4415516    285653.12    1.1379479 
  821000    363.48878    7.4680581    289144.38    1.1242079 
  822000    396.94887    27.059668    287019.34    1.1325313 
  823000    375.75986    32.497197    287593.64    1.1302697 
  824000    381.84758    -5.977307    290473.33    1.1190645 
  825000    360.87026    3.2479914    290456.99    1.1191274 
  826000    361.57033    20.722152     288167.3    1.1280197 
  827000    361.98226    9.0615006    288766.04    1.1256808 
  828000    377.36919     58.93122    285754.46    1.1375444 
  829000    374.22359    11.849399    287108.93    1.1321779 
  830000    372.94577   -6.8462576    287969.82    1.1287932 
  831000    390.39775   -9.3392985    289680.27    1.1221282 
  832000    369.65491    1.2031138    292497.03     1.111322 
  833000    377.22763   -18.768594    292849.22    1.1099855 
  834000    371.15776    41.393343    290951.19    1.1172265 
  835000    389.60132    4.0297807    293587.15    1.1071955 
  836000    357.52885    40.078726    292896.33    1.1098069 
  837000    365.19968   -17.260912    295838.27    1.0987706 
  838000    380.41582   -4.3693665       293796    1.1064085 
  839000    354.16339    41.737157    288529.98    1.1266017 
  840000    356.35018   -16.588975     290923.1    1.1173344 
  841000    376.53382    1.8144445    288649.87    1.1261338 
  842000    352.77645    99.255123    285392.04    1.1389889 
  843000    402.88926   -8.0432183    290176.48    1.1202093 
  844000    366.13512   -42.913903    290362.62    1.1194912 
  845000    391.00495   -7.0736456     287884.8    1.1291266 
  846000    378.93673    23.709221    285212.93    1.1397042 
  847000    376.87593   -6.9885739    286346.71    1.1351916 
  848000    368.16653    11.011329    287423.35    1.1309394 
  849000    372.78659    1.9778662     289264.3    1.1237418 
  850000    364.72259   -5.6496174    287847.93    1.1292712 
  851000     389.2154    118.18442    281679.03    1.1540028 
  852000     368.9266   -2.6477729    285026.49    1.1404497 
  853000    375.50132   -15.474719    286107.47    1.1361408 
  854000    375.01819  -0.75512546    285843.06    1.1371918 
  855000    357.84339    19.675943    285760.12    1.1375219 
  856000    378.88873    2.6006371    284683.27    1.1418247 
  857000    382.46142    20.290471    284766.01    1.1414929 
  858000    367.00852   -15.999713    286639.55    1.1340318 
  859000    383.40579    21.093948    283770.03    1.1454993 
  860000    389.57089     8.216707    288263.76    1.1276422 
  861000    358.65553    22.596615    288576.65    1.1264196 
  862000    381.24602   -8.3592998    290603.29     1.118564 
  863000    353.77945   -8.1902883    290346.56    1.1195531 
  864000    402.56057     5.219973    291121.23    1.1165739 
  865000    370.89332   -30.938557    291018.28    1.1169689 
  866000    373.91969  -0.91531999    290042.52    1.1207266 
  867000    364.56312   -24.473634    289124.07    1.1242868 
  868000    378.70331   -5.7716734    288244.62    1.1277171 
  869000    366.73002    11.058185    290046.44    1.1207115 
  870000    366.55508   -107.21828    296064.74    1.0979301 
  871000    363.48555    3.3761531    288597.88    1.1263367 
  872000    381.59743   -46.726533    289030.65    1.1246502 
  873000    369.78739    16.314454    287869.91     1.129185 
  874000    371.04228    19.370353    288927.52    1.1250516 
  875000    374.10688      7.15961    291526.42     1.115022 
  876000    371.83962   -10.106264    292378.47    1.1117727 
  877000    369.24547   -87.965974    295572.69    1.0997578 
  878000    378.19087   -2.2163852    289195.12    1.1240106 
  879000    377.81109   -39.753193    288108.54    1.1282497 
  880000     384.3333    17.005954    285857.05    1.1371361 
  881000    365.56973   -5.9782788    285586.72    1.1382125 
  882000    384.24928    20.364688    283964.31    1.1447156 
  883000     364.9173  -0.24141968    283427.45    1.1468839 
  884000    382.18499    -76.09547    286383.46    1.1350459 
  885000    361.32245    -8.491279    286129.06    1.1360551 
  886000    363.05838    37.129233    284636.25    1.1420133 
  887000    380.30959   -1.5606532    289661.61    1.1222004 
  888000    373.20324    9.3399332    290374.88    1.1194439 
  889000    351.27371    25.964042    289814.07    1.1216101 
  890000    378.52997    -3.149923    290733.48    1.1180631 
  891000    388.66974   -82.720615    294648.69    1.1032066 
  892000    378.23685      5.77221    286145.22    1.1359909 
  893000    386.53655   -5.9435367    288187.62    1.1279401 
  894000    381.70338    67.285806    286282.49    1.1354463 
  895000    389.59239    6.6248283    286621.81    1.1341021 
  896000    345.98575   -66.176671     290358.5     1.119507 
  897000    379.04687    7.7146483    287804.14     1.129443 
  898000     366.1307    4.3767041    287978.03     1.128761 
  899000    378.12884     2.887239    284517.78    1.1424888 
  900000    388.10227   -9.0920623    287277.99    1.1315116 
  901000    357.96919    11.509181    287910.54    1.1290256 
  902000    390.21005    9.7025829    287756.21    1.1296312 
  903000     366.4114   -68.157408    291935.95    1.1134579 
  904000    387.69414   0.92783825    288428.31    1.1269989 
  905000    369.92756    55.545999    287203.46    1.1318053 
  906000    376.42347   -2.3335346    291314.14    1.1158345 
  907000    387.50996   -4.9987785    288442.89    1.1269419 
  908000      359.134   -74.304217    291426.15    1.1154057 
  909000    384.34782   -21.578738       287725    1.1297537 
  910000    379.94349    11.636529    284307.81    1.1433326 
  911000    364.36489    18.272512    284536.63    1.1424131 
  912000    389.52388    7.9847408    285307.33    1.1393271 
  913000    375.15565   -10.546481    287518.07    1.1305668 
  914000    392.84532   -58.661236    291619.26    1.1146671 
  915000    366.71985   -5.2695801    286470.66    1.1347004 
  916000    384.31418   -12.090454    283709.97    1.1457418 
  917000    362.67665   -73.513522    285326.71    1.1392498 
  918000    373.74665    12.536389    283287.69    1.1474497 
  919000    375.55224   -7.5643815     284162.2    1.1439184 
  920000    371.24754   -4.5651211    282232.87    1.1517382 
  921000    368.48474    81.857948    280258.56    1.1598518 
  922000    378.78774    7.9459218    284804.92    1.1413369 
  923000    360.97074    18.122728    282311.55    1.1514172 
  924000    368.86109   -6.1729617    284348.45    1.1431692 
  925000    381.50237   -12.007651    282793.06    1.1494567 
  926000     357.8221   -3.4162017    280656.49    1.1582073 
  927000    402.89483    114.23364     275742.4     1.178848 
  928000    352.48249    51.366214    279399.74    1.1634169 
  929000    377.78428    16.427742       284319    1.1432876 
  930000    368.83742   -9.7719633    287049.57     1.132412 
  931000    367.63874   -9.4107886    288633.25    1.1261987 
  932000    369.57346  -0.96596471    289222.82    1.1239029 
  933000    394.51668    40.047589    285764.28    1.1375053 
  934000    382.69827   -8.8137289    285949.02    1.1367704 
  935000    370.29694    15.576368    285042.32    1.1403864 
  936000    366.82038   -40.418621    286861.09    1.1331561 
  937000    369.33801    82.781734    282113.29    1.1522264 
  938000    376.72206    -1.195937    284553.82    1.1423441 
  939000    373.05962   -11.551662    285264.43    1.1394985 
  940000    368.53972    24.754328    284119.77    1.1440893 
  941000    370.74406    61.926839     280714.4    1.1579683 
  942000    374.99571    22.369026    282355.94    1.1512362 
  943000    365.48177    -4.707263    282519.87    1.1505682 
  944000    381.67562   -16.333639    285866.69    1.1370978 
  945000    372.23827    36.986764    286027.69    1.1364577 
  946000    361.64941     18.11407    287049.12    1.1324138 
  947000    390.23708   -11.762617    290908.24    1.1173915 
  948000    365.52383    121.79563    281569.87    1.1544502 
  949000    376.00151   -8.9864124    285854.54    1.1371461 
  950000     372.8019    8.4429927    286795.61    1.1334148 
  951000    379.92577    -8.942567    290079.82    1.1205825 
  952000     373.9158    -2.153517    289810.62    1.1216234 
  953000    371.75155    7.5179621     288448.3    1.1269208 
  954000    353.22376   -6.2935706     291552.3    1.1149231 
  955000    367.91525   -19.507996    290388.57    1.1193911 
  956000    367.09198   -8.5259137     285607.1    1.1381313 
  957000    368.98897    95.754098    284000.62    1.1445693 
  958000    368.74683   -8.9868601    288931.96    1.1250344 
  959000    398.71354    16.993188    287223.54    1.1317261 
  960000    367.68457    16.324558    288747.89    1.1257515 
  961000     376.9753  -0.57507649    287842.82    1.1292913 
  962000    357.92823    73.607732    283396.57    1.1470089 
  963000    391.39493    23.631841    286883.19    1.1330688 
  964000     368.1308    9.0321714     283129.8    1.1480896 
  965000    379.52739    33.437729    285964.52    1.1367088 
  966000    366.96056    10.529107    286902.78    1.1329914 
  967000    398.91804   0.66371766    286520.13    1.1345045 
  968000    365.25286    10.682037    285298.31    1.1393632 
  969000    393.04173    112.82513    283870.88    1.1450924 
  970000    367.79441    -7.164259     287556.7    1.1304149 
  971000    370.31128   -10.884427    286156.91    1.1359445 
  972000    373.52988    59.909455    282410.75    1.1510128 
  973000    363.50648    16.630572    286353.55    1.1351645 
  974000    357.77846   -1.2528519     285603.4     1.138146 
  975000    374.23718     23.17652    284996.98    1.1405678 
  976000    378.25918    114.55117    281216.37    1.1559014 
  977000    363.38215    16.026737    282678.96    1.1499207 
  978000    381.90164    1.6861332    284559.98    1.1423194 
  979000    367.74191    39.769112    283767.44    1.1455098 
  980000    376.24384   -18.759777    284893.89    1.1409805 
  981000    368.10851   -5.2389811    284791.61    1.1413903 
  982000     361.4491    23.701304    285511.71    1.1385116 
  983000    366.87637    58.375275    286074.93    1.1362701 
  984000    382.29251    2.8164029    289114.94    1.1243223 
  985000    349.24013  -0.10357682    287733.36    1.1297209 
  986000    363.17405    19.620804     285007.3    1.1405265 
  987000    387.90804    24.949425    286332.57    1.1352477 
  988000    373.95726   -11.938084     288872.7    1.1252651 
  989000    364.01482    11.655678    285849.02    1.1371681 
  990000     370.3836    -16.84046    286493.86    1.1346085 
  991000    386.35632   -49.457466    290791.85    1.1178387 
  992000    360.55381    29.967889    288800.58    1.1255462 
  993000    382.50527   -9.8054329    288970.76    1.1248833 
  994000    385.97559    37.579381    284498.17    1.1425676 
  995000    366.83705   -51.303666    287035.61    1.1324671 
  996000    365.57911    8.1577585    286559.94    1.1343469 
  997000    382.67376   -13.912791    285114.32    1.1400984 
  998000    374.17878    18.782459    283240.83    1.1476395 
  999000    372.35414    35.639429    283950.21    1.1447725 
 1000000     371.9805    5.2755201    285934.98    1.1368262 
 1001000    374.02451     19.08285    286288.92    1.1354208 
 1002000    363.84695   -49.489455    291205.07    1.1162525 
 1003000    399.75288    3.0723547    288057.77    1.1284486 
 1004000     385.8191   -0.8776535    288860.88    1.1253112 
 1005000    365.14344   -62.813066    291919.58    1.1135203 
 1006000    379.77517   -33.531872    290666.75    1.1183198 
 1007000    373.55858     9.962019    288115.95    1.1282207 
 1008000    372.12847   -18.780652    287598.51    1.1302506 
 1009000    357.62754    73.530138    285044.19    1.1403789 
 1010000    386.13534    -13.82662    289171.48    1.1241025 
 1011000     366.6839   -4.9353115    288284.19    1.1275623 
 1012000    359.21608    29.506158    286860.52    1.1331583 
 1013000    390.49545    38.780522    285486.79     1.138611 
 1014000    365.79655    3.1764215    284967.62    1.1406853 
 1015000    382.43616    25.986831    283154.95    1.1479876 
 1016000    367.69564    63.723134    285140.04    1.1399956 
 1017000    381.05901   -20.395575    289092.71    1.1244088 
 1018000    362.85559   -9.9755241    286818.43    1.1333246 
 1019000    390.93772    -25.68992    286629.43    1.1340719 
 1020000    356.30359    117.75697    282080.39    1.1523608 
 1021000    374.49011   -17.824566    286358.51    1.1351448 
 1022000    347.57775   -2.5671553    287143.57    1.1320413 
 1023000    372.84512   -29.196724    288461.39    1.1268696 
 1024000    387.22032   -85.086992    293330.23    1.1081653 
 1025000    361.89751   -14.130901    287557.53    1.1304117 
 1026000    376.82359    11.112939    284470.72    1.1426778 
 1027000    371.52031    39.243961    284710.57    1.1417152 
 1028000    384.77661    21.742424    281640.65      1.15416 
 1029000    365.37472   -7.0945047    284043.74    1.1443955 
 1030000    359.53141    -26.43197    284061.55    1.1443237 
 1031000    380.50836    -59.21984    285796.48    1.1373771 
 1032000    381.60292   -11.017262    282952.44    1.1488093 
 1033000    353.43467    21.024936    279710.37    1.1621249 
 1034000    377.98184   -42.431295    283189.59    1.1478472 
 1035000    372.61167    4.7632419     283173.6     1.147912 
 1036000     390.7075    23.997436    282356.83    1.1512326 
 1037000    345.82154    -13.81635    284490.37    1.1425989 
 1038000    374.97008   -5.6674933    284939.54    1.1407977 
 1039000    362.88463   -94.091152    288381.78    1.1271807 
 1040000    369.24621    15.058022    280464.22    1.1590012 
 1041000    378.45268   -13.126094    283724.61    1.1456827 
 1042000    369.84924    -62.55157    285464.25    1.1387008 
 1043000    391.78216    10.447979    283553.67    1.1463734 
 1044000    353.48239    -17.79198    286449.23    1.1347853 
 1045000    403.82897   -14.484944    283759.58    1.1455415 
 1046000    354.25136   -11.931773    283506.16    1.1465655 
 1047000    370.74418   -64.845358    284149.51    1.1439695 
 1048000    368.07085   -3.7658033    279473.78    1.1631087 
 1049000    361.86152    40.086512    280537.07    1.1587003 
 1050000    389.73824   -7.5141759    285188.86    1.1398004 
 1051000    369.98558   -39.289199    285723.67     1.137667 
 1052000    356.24434    5.2977853    283862.41    1.1451265 
 1053000    403.86839   -11.806583    286425.45    1.1348795 
 1054000    368.88871   -27.839112    286771.94    1.1335083 
 1055000    373.35993    9.9351326    284387.59    1.1430119 
 1056000     378.0525   -45.598228    287174.41    1.1319197 
 1057000    365.86917    12.167954    283131.07    1.1480844 
 1058000    381.76045    1.1547318       285382     1.139029 
 1059000      377.361    19.225588    285633.11    1.1380277 
 1060000    363.46638   -4.1809467    284175.88    1.1438634 
 1061000    366.76238   -64.319022    289564.54    1.1225766 
 1062000    356.97793   0.74334785    282657.82    1.1500067 
 1063000    360.31428    1.6439533    284105.18     1.144148 
 1064000    380.98367    5.1211239    285045.06    1.1403754 
 1065000    367.95552    9.1518153    284139.12    1.1440114 
 1066000    380.32247    9.1101499     284895.9    1.1409725 
 1067000    367.95444   -36.662025    287147.63    1.1320253 
 1068000    374.48018    10.447064    283985.56      1.14463 
 1069000    349.56055   -74.807002    286723.85    1.1336984 
 1070000    380.56142    10.184275    282054.75    1.1524656 
 1071000    351.08403   -61.292402    283663.24    1.1459306 
 1072000    373.76015    -6.800989    281896.11    1.1531141 
 1073000    353.96918   -104.88613    289115.39    1.1243206 
 1074000    369.16421    -7.645558    282390.77    1.1510942 
 1075000    382.66637    88.322809    280171.19    1.1602134 
 1076000    378.66788   -7.1330414    284045.62    1.1443879 
 1077000     373.1086    28.061721     283477.2    1.1466826 
 1078000    357.74184   -6.7035237     284404.1    1.1429455 
 1079000    381.27077   -43.893571    286869.96     1.133121 
 1080000    366.61516    14.223522    286366.46    1.1351133 
 1081000    364.51815   -20.089968    286616.98    1.1341212 
 1082000    393.66605   -14.001922    285499.07     1.138562 
 1083000     367.8671    4.6337854    284574.94    1.1422593 
 1084000    359.63401    28.823581    282041.02    1.1525217 
 1085000    385.90194    4.8553549    282946.74    1.1488324 
 1086000    377.95561    47.864036    283852.08    1.1451682 
 1087000    387.82647   -0.7476807    284626.93    1.1420507 
 1088000     361.2908    103.09008    281955.41    1.1528716 
 1089000    387.20821    2.3710662    287617.89    1.1301744 
 1090000    369.99163    35.683925    287392.86    1.1310593 
 1091000    362.14023   -1.3234041    288441.15    1.1269487 
 1092000    395.10358    6.2832216    289168.72    1.1241132 
 1093000    376.70945   -46.270552    290064.93    1.1206401 
 1094000    366.86236    1.0671818    287182.83    1.1318865 
 1095000    366.78517    50.849991    282988.09    1.1486645 
 1096000    362.19603     4.212232    284688.67     1.141803 
 1097000    354.62014    13.049032    286053.18    1.1363565 
 1098000    386.21863   -43.403324    287737.17    1.1297059 
 1099000    351.17537    8.7844357    287161.37    1.1319711 
 1100000    368.40317   -63.389492    288382.32    1.1271786 
 1101000    385.24292  -0.63758081    287362.51    1.1311788 
 1102000    371.10358    55.707905    285965.75    1.1367039 
 1103000    394.18524   0.60034373    291568.46    1.1148612 
 1104000    354.65421   -24.636339    292668.17    1.1106721 
 1105000    385.02493   -6.6717078    290599.59    1.1185783 
 1106000    395.39839    1.6838333    290436.73    1.1192055 
 1107000    373.88776      62.6728    287885.91    1.1291222 
 1108000    377.97668    8.9628195    286907.99    1.1329708 
 1109000    375.57541    96.634243    283591.58    1.1462202 
 1110000    360.92432   0.26857454     288386.6    1.1271619 
 1111000     377.6261    84.235766    287755.57    1.1296337 
 1112000    369.42532   -8.3452524    292499.31    1.1113133 
 1113000    362.22839   -12.300199    292062.89    1.1129739 
 1114000    386.01586    3.5660122    292007.48    1.1131851 
 1115000     361.4569    60.110249    287397.18    1.1310423 
 1116000    394.14094   -8.1427653    292125.22    1.1127364 
 1117000    360.63022   -48.653576    292720.49    1.1104736 
 1118000    379.96384   -9.0673501    291608.24    1.1147092 
 1119000    384.51334    21.391816    287893.48    1.1290925 
 1120000    362.99346   -13.031934    290383.08    1.1194123 
 1121000    370.09725   -2.5345708    287889.16    1.1291095 
 1122000    377.68743    79.062096    288179.25    1.1279729 
 1123000    368.82522    8.5255761    291392.32    1.1155352 
 1124000    389.81689    -13.99766    290401.33    1.1193419 
 1125000      368.597  -0.50031228    289437.02    1.1230712 
 1126000    348.89435    28.631724    287209.45    1.1317816 
 1127000    379.80923    5.1687777    292181.25    1.1125231 
 1128000      373.412    13.276768    291033.25    1.1169115 
 1129000    369.96573    1.9353659    290392.22     1.119377 
 1130000    393.96803    7.8739479    288919.94    1.1250812 
 1131000    369.55933    94.327546    284155.06    1.1439472 
 1132000    396.69786    6.4837529    286807.42    1.1333681 
 1133000    375.95867    18.559293    285174.99    1.1398559 
 1134000    377.75994     -47.9395    288379.96    1.1271878 
 1135000    383.65128    3.1061692    287276.27    1.1315184 
 1136000    372.41653    19.747684     284397.4    1.1429724 
 1137000      360.226    5.1859795    284360.67      1.14312 
 1138000    378.73614   -10.710719     287021.7     1.132522 
 1139000    369.21598   -34.911463    292187.86    1.1124979 
 1140000    371.20543     5.651325    289155.42    1.1241649 
 1141000    392.15262   -64.376417    291603.04    1.1147291 
 1142000    368.48136    7.4920191    285752.91    1.1375506 
 1143000    374.98634    27.928629    286528.34     1.134472 
 1144000    367.19632   -5.0338095    285843.44    1.1371903 
 1145000    380.01161   -58.570229    287117.59    1.1321438 
 1146000    363.99763    -5.609028     286476.9    1.1346757 
 1147000    362.76132    14.121764    286868.86    1.1331254 
 1148000    380.88009    4.7113572    288654.62    1.1261153 
 1149000    356.29239    7.0568426    287039.52    1.1324517 
 1150000    373.90499   -7.6167647    285747.57    1.1375718 
 1151000    391.65643   -5.8706997    284685.39    1.1418162 
 1152000    368.26594    13.606208    284372.56    1.1430723 
 1153000     379.8774    11.756873    287274.18    1.1315266 
 1154000    361.30531    6.4777128    285519.85    1.1384791 
 1155000    379.42682    -41.46064     289283.8     1.123666 
 1156000    356.33309    8.6468357    287810.97    1.1294162 
 1157000    384.12588   -56.896055    293944.91     1.105848 
 1158000    367.57134    9.6072106    292309.45    1.1120351 
 1159000    383.99608    37.809278    289770.39    1.1217791 
 1160000    367.52861   -13.989571    290385.72    1.1194021 
 1161000    367.02714   -8.1234301    285274.11    1.1394598 
 1162000    363.38278    30.697971    283418.11    1.1469217 
 1163000    363.93044   -9.0564268    288823.37    1.1254573 
 1164000    381.36152   -31.272233    287880.27    1.1291444 
 1165000    376.61524   0.53503131    288681.31    1.1260112 
 1166000    378.47661   -99.392935    293610.35     1.107108 
 1167000    360.87077   -5.0266719    286442.19    1.1348132 
 1168000     371.1385    17.762694    287780.96     1.129534 
 1169000     380.1038    14.317894    290439.86    1.1191934 
 1170000    371.85724     4.334838     289438.4    1.1230659 
 1171000    375.56054   -51.548954    288352.39    1.1272956 
 1172000    375.82983    10.397052    284577.13    1.1422506 
 1173000    367.47327   -6.1977408    285707.86    1.1377299 
 1174000    376.71135   -34.206444    286296.38    1.1353912 
 1175000    357.65978    8.6380321     281426.5    1.1550383 
 1176000    381.27884    8.0495544     281522.7    1.1546436 
 1177000    384.81792    5.8760158    283119.33     1.148132 
 1178000    356.23627   -83.791919    290315.72     1.119672 
 1179000     374.2838    11.630966    283713.88     1.145726 
 1180000    372.68543   -5.7413421    285474.97    1.1386581 
 1181000    344.56875    54.113693    284318.32    1.1432903 
 1182000    376.78925   -20.987101     287266.1    1.1315585 
 1183000    375.43705   -3.8885111    287214.93      1.13176 
 1184000    377.22244   -12.553588    288157.67    1.1280574 
 1185000    367.81048    71.726601    284202.99    1.1437543 
 1186000     389.9111    8.4914871     289910.9    1.1212355 
 1187000    369.49112   -3.0933109    285987.69    1.1366167 
 1188000    350.42467    23.454056    285146.08    1.1399714 
 1189000    364.27056   -13.116109    286843.95    1.1332237 
 1190000     382.3933   -7.1811328    285845.25    1.1371831 
 1191000    366.27415 -0.044330675    284133.59    1.1440336 
 1192000     366.3773   -22.691794    284795.23    1.1413758 
 1193000    385.05885   -115.69173    289096.88    1.1243926 
 1194000     370.1864   -17.205179    287576.87    1.1303356 
 1195000    377.60736     8.533068    287816.74    1.1293936 
 1196000    377.03533  -0.93240529    284789.92    1.1413971 
 1197000    377.15253    6.2715668    286099.18    1.1361738 
 1198000     367.5515   -29.572252    287499.24    1.1306408 
 1199000    377.33073   -59.741767    290140.87    1.1203467 
 1200000    356.40642     47.07022    285701.74    1.1377543 
 1201000    373.20527    13.220548    287628.43     1.130133 
 1202000    367.90547    4.9906025    286985.77    1.1326638 
 1203000    378.28542   0.31826366    287215.26    1.1317587 
 1204000    383.12776   -4.1486071    287149.07    1.1320196 
 1205000    371.66714    12.866542    286602.52    1.1341784 
 1206000    355.14828   -29.333245    287187.15    1.1318695 
 1207000    385.47776    32.428301    283905.29    1.1449536 
 1208000    365.82807    74.181347    281906.63    1.1530711 
 1209000    377.59255   -2.4212089    287752.55    1.1296455 
 1210000    377.25983   -6.9527708    287202.17    1.1318103 
 1211000    384.66318    6.2770014    288199.04    1.1278954 
 1212000    373.66411    11.543411    288501.68    1.1267123 
 1213000    375.37225    6.9301867     285602.3    1.1381504 
 1214000    374.43758   -45.470418    291697.16    1.1143694 
 1215000    370.49926   -22.423514    289055.51    1.1245535 
 1216000    369.34172   -4.7822113     288609.5    1.1262914 
 1217000    390.40911   -4.5425003    289272.67    1.1237093 
 1218000     376.9291    1.6057937    290773.88    1.1179078 
 1219000    381.56257   -22.263601    288464.83    1.1268562 
 1220000    362.04536   -86.128444    289291.89    1.1236346 
 1221000    370.50631   -42.591486    287180.93     1.131894 
 1222000    373.49945    7.5441287    286159.14    1.1359357 
 1223000    375.09374   -3.0171799    286428.51    1.1348674 
 1224000    359.29154    9.7771465    288390.47    1.1271468 
 1225000    400.02903   -35.412587    294784.27    1.1026992 
 1226000    357.58883   -29.653896    294781.25    1.1027105 
 1227000    386.63941    37.915984    292365.13    1.1118234 
 1228000    369.48139    10.233728    289498.29    1.1228335 
 1229000    378.87868    4.3480087    287277.49    1.1315136 
 1230000    379.10302    5.5132704    288422.26    1.1270225 
 1231000    379.91985  -0.53798692    287168.47    1.1319431 
 1232000    371.84342   -16.506367    288708.18    1.1259064 
 1233000    395.73869  -0.49561246    289441.83    1.1230525 
 1234000    358.18995    132.84327    286538.35    1.1344324 
 1235000    387.42771   -17.913572    289129.99    1.1242638 
 1236000    373.35165    92.173674    283509.51    1.1465519 
 1237000    366.20797   -20.680856     285691.2    1.1377963 
 1238000    383.77645   -13.350764    287260.59    1.1315802 
 1239000    380.59058    6.6364959    284350.36    1.1431615 
 1240000    339.83839   -3.0416496    283234.88    1.1476637 
 1241000    386.91637   -4.4658198    285985.85     1.136624 
 1242000    366.68139   -5.2645048    287730.27     1.129733 
 1243000    378.45623   -7.8902935     287688.4    1.1298974 
 1244000    361.33408   -16.276202    284830.63    1.1412339 
 1245000    376.04478     57.21997    282457.95    1.1508205 
 1246000    334.16152   -75.232858     286384.7     1.135041 
 1247000    371.48598   -55.053457    287149.57    1.1320177 
 1248000    385.68298    16.717484    284950.84    1.1407525 
 1249000    360.61683    1.0715809    286163.67    1.1359177 
 1250000    377.86004   -4.9403768    286744.19     1.133618 
 1251000    368.68292    7.1587955    287936.33    1.1289245 
 1252000    366.22638   -19.365578    287107.56    1.1321833 
 1253000    342.94801   -57.625852    291468.34    1.1152442 
 1254000    377.73271    2.5005972    289071.48    1.1244914 
 1255000    380.07589    7.1524927    286458.08    1.1347503 
 1256000    344.69095   -2.6918847     284692.2    1.1417889 
 1257000    376.64021   -10.456282    287297.01    1.1314367 
 1258000    369.45216   -28.004663    288322.28    1.1274133 
 1259000     376.0446   -107.15217    293369.34    1.1080176 
 1260000    367.57838    71.391268    285271.34    1.1394709 
 1261000    359.40269    30.398426    284910.31    1.1409148 
 1262000    384.98147    13.762972    288180.85    1.1279666 
 1263000    363.22697   -6.1706969    288876.08     1.125252 
 1264000    372.94113    1.8595791    285933.51    1.1368321 
 1265000    377.20323    3.9501089    287537.74    1.1304894 
 1266000    375.74954  -0.14051983    288729.77    1.1258222 
 1267000    365.48591    1.5120728    286214.67    1.1357153 
 1268000    380.72287    89.791846    280978.14    1.1568814 
 1269000    377.74947   -114.01669    290836.11    1.1176686 
 1270000    357.44687   -22.408285    286163.84     1.135917 
 1271000    365.33898   -2.3607638    288572.45     1.126436 
 1272000    374.40873    2.8621749     289872.9    1.1213825 
 1273000    369.64594     6.213345    285958.06    1.1367345 
 1274000    374.85222   -2.1019559       284027    1.1444629 
 1275000    350.52588   -7.5799763    283142.03      1.14804 
 1276000    374.60817   -12.415438    283269.61     1.147523 
 1277000    367.66162    12.437845    283062.69    1.1483618 
 1278000    377.36433   -44.828725    285753.01    1.1375501 
 1279000    368.10185   -78.466216    288106.31    1.1282585 
 1280000    385.52923   -6.3894637     288780.5    1.1256244 
 1281000    369.11795   -7.3291559    286237.35    1.1356253 
 1282000    376.27304   -7.8709931    286557.56    1.1343563 
 1283000    367.17483   -6.0321418    289370.43    1.1233297 
 1284000    397.96733   -4.5407901    286917.47    1.1329334 
 1285000     364.6032    5.7423671    285529.21    1.1384418 
 1286000    377.80729   -2.9810512    284341.49    1.1431971 
 1287000    370.97033   -2.8672761     284210.8    1.1437228 
 1288000    380.79593   0.20262279    283562.05    1.1463395 
 1289000    368.31933  -0.64054568    282692.29    1.1498664 
 1290000    374.29563  -0.25496001    282472.96    1.1507593 
 1291000    354.24896    11.362455    281818.93    1.1534299 
 1292000    379.48987    25.258024    281938.42    1.1529411 
 1293000    371.37881     86.92347    281359.86    1.1553119 
 1294000    378.50874   -45.258307    287729.89    1.1297345 
 1295000    370.71471   -12.762834    284633.08     1.142026 
 1296000     371.4393    5.1770202    286133.73    1.1360366 
 1297000    378.51176    3.1455556    286158.35    1.1359388 
 1298000    377.09531    5.0914547    291915.13    1.1135373 
 1299000    380.82016   -5.3680517    291784.05    1.1140375 
 1300000    350.71066    24.023054    289452.82    1.1230099 
 1301000    394.69985    -13.61333    290496.16    1.1189765 
 1302000    376.02525    68.438693    282663.32    1.1499843 
 1303000    371.87953    1.9095061    282035.36    1.1525448 
 1304000    380.56192    5.3876982    279808.16    1.1617188 
 1305000    346.84395    6.0914551    282539.86    1.1504868 
 1306000    383.88844   -3.2827941    286538.89    1.1344302 
 1307000    360.27947   0.37737508    287726.32    1.1297485 
 1308000    375.31142    4.1694316     287641.1    1.1300832 
 1309000    364.90921    108.85717    283138.83     1.148053 
 1310000    380.77574    -44.62364    286230.11     1.135654 
 1311000    366.89285   -77.056353     285513.7    1.1385036 
 1312000    380.04443    3.7733233    282559.79    1.1504057 
 1313000     359.4148     18.96629       281412    1.1550978 
 1314000    374.55749    9.6114486    283337.98     1.147246 
 1315000    388.00239   -10.575961     284570.8     1.142276 
 1316000    375.67672   -11.285124    286820.41    1.1333168 
 1317000    384.84858   -12.983209    285937.95    1.1368144 
 1318000    368.63485    19.534251    285451.83    1.1387504 
 1319000      380.853    35.023681    284207.61    1.1437357 
 1320000    366.18767    15.002127    285102.84    1.1401443 
 1321000    358.39298    1.2164105    286915.44    1.1329414 
 1322000    392.91486   -1.9062617    287129.13    1.1320982 
 1323000    358.16582    92.976386    281134.08    1.1562397 
 1324000    374.04005    -7.846581    282085.06    1.1523417 
 1325000    392.94736    1.9434237    285474.54    1.1386598 
 1326000    359.78063    16.568031    284980.56    1.1406335 
 1327000    382.16912    1.7738427    286819.56    1.1333201 
 1328000    362.11419    1.3645984    286843.56    1.1332253 
 1329000    385.41833    10.979308    288382.76    1.1271769 
 1330000    371.85062    2.9077088    286330.14    1.1352573 
 1331000    376.81228   -1.4702337    285461.85    1.1387104 
 1332000    389.73798    148.71315    280633.53     1.158302 
 1333000    377.61612    -2.028149    286722.94     1.133702 
 1334000    351.07076    17.275747    286304.63    1.1353584 
 1335000     378.8141    2.5796836    288868.08    1.1252831 
 1336000     364.2341   -1.9926962    287734.55    1.1297162 
 1337000    383.30462    69.982473    284553.96    1.1423436 
 1338000    357.99583   -9.6115506    290305.47    1.1197115 
 1339000    374.32217    1.3992225    291581.74    1.1148105 
 1340000    345.27114    12.014573    289710.89    1.1220095 
 1341000    398.20438    21.254418    290244.04    1.1199485 
 1342000    368.93347   -1.4759042     290279.2    1.1198129 
 1343000    374.26367    2.5712017    288953.11     1.124952 
 1344000    361.41997    133.07041    281913.49     1.153043 
 1345000    386.43872   -6.9284101    287020.39    1.1325271 
 1346000    361.69666   -2.6721028    287873.64    1.1291704 
 1347000    380.09238   0.74491096    288165.14    1.1280281 
 1348000      378.152    6.9870572    284530.37    1.1424383 
 1349000    373.24696   -92.973876    287683.97    1.1299148 
 1350000    372.96235   -28.119721    283379.93    1.1470762 
 1351000    372.67904   -3.8441232    284853.97    1.1411404 
 1352000     352.7596    4.3744704    285639.63    1.1380017 
 1353000     389.9454    15.193088    285723.43    1.1376679 
 1354000    368.24584    111.86251    283968.36    1.1446993 
 1355000    374.59221    4.3695174    289103.98    1.1243649 
 1356000    372.65725    4.1257096    285816.03    1.1372993 
 1357000    390.38678    139.66819    281002.18    1.1567824 
 1358000    380.33578    2.6455226    286892.75     1.133031 
 1359000    342.79744    -14.87662    291828.44    1.1138681 
 1360000    390.70056    16.969809    288927.92    1.1250501 
 1361000    359.74824   -1.8178025    285399.82    1.1389579 
 1362000    377.88209    48.903331    283833.37    1.1452437 
 1363000    399.69865   0.22472648    286326.48    1.1352718 
 1364000     380.2353   -4.6105998    288450.44    1.1269124 
 1365000    372.39451    3.4192502    288508.05    1.1266874 
 1366000    396.60886   -1.2211164    289979.03     1.120972 
 1367000    369.45372   -60.924108     292731.5    1.1104318 
 1368000    366.16533   0.13435457    287484.42    1.1306991 
 1369000    389.24736   -21.751378    291612.04    1.1146947 
 1370000    368.56121    2.3298218    291119.28    1.1165814 
 1371000    366.21105   -34.563008    291538.33    1.1149765 
 1372000    377.60101    5.9334904    287846.19     1.129278 
 1373000    370.94014  -0.42958064    284133.01     1.144036 
 1374000    373.66542   -11.408049    283363.85    1.1471413 
 1375000    379.66509    8.9654295    283546.21    1.1464036 
 1376000    377.89775     1.413715    286437.85    1.1348304 
 1377000    362.02026    -3.311989    282718.32    1.1497606 
 1378000    381.18022   -11.892331    283637.62    1.1460341 
 1379000    373.39018    3.0460467    282445.89    1.1508696 
 1380000     375.3228    1.8737261    281643.31    1.1541491 
 1381000    366.60632    4.1572358    283056.59    1.1483866 
 1382000    378.13716   -38.733178    284699.96    1.1417577 
 1383000    395.42696   -11.552966     285191.9    1.1397883 
 1384000    372.34654   0.35861387       287237    1.1316731 
 1385000    370.31239    -4.285544    284441.34    1.1427958 
 1386000    370.13507   -9.9312626    285382.02    1.1390289 
 1387000    365.91971    2.2926893    284093.72    1.1441942 
 1388000    377.96538  -0.21071123    283442.05    1.1468248 
 1389000    373.59649   0.37264941    283266.31    1.1475363 
 1390000    359.78028    1.4195778    287188.07    1.1318659 
 1391000    382.81694   0.39196692    287547.92    1.1304494 
 1392000    377.13161    139.95304    282344.03    1.1512848 
 1393000    378.44519     14.93626    285129.94    1.1400359 
 1394000    361.60934     5.092499    281809.26    1.1534695 
 1395000    367.04988   0.41874774    285266.19    1.1394915 
 1396000    354.90769    0.6326392    286234.89    1.1356351 
 1397000    384.01527   0.99518195    288602.99    1.1263168 
 1398000    370.00339   -22.134679    287251.04    1.1316178 
 1399000    366.72195    6.3164222     287943.7    1.1288956 
 1400000    387.71661    0.4266163    283994.62    1.1445934 
 1401000    360.59746    2.2991081    283744.85     1.145601 
 1402000    377.54771   -1.9971341    285130.86    1.1400323 
 1403000     367.0332   -4.9332664    281662.52    1.1540704 
 1404000    383.72574    130.61767    280105.15     1.160487 
 1405000    386.30898   -2.9023635    285186.04    1.1398117 
 1406000    358.17631   -1.1708635     285307.5    1.1393264 
 1407000    392.81482    141.86139    278876.79    1.1655985 
 1408000    370.28977   -8.3187119    288219.34     1.127816 
 1409000    380.61873    1.7150679    286472.02     1.134695 
 1410000    363.51276    23.401267    286410.46    1.1349389 
 1411000    391.24893   -1.0522281     286809.1    1.1333615 
 1412000    361.52461  -0.84151127    284007.48    1.1445416 
 1413000    371.01012    15.273697    283523.88    1.1464939 
 1414000    380.14874   -1.6229169    285557.94    1.1383272 
 1415000    346.38649   -144.89681    292029.32    1.1131019 
 1416000    404.78433    2.8654153    285811.59     1.137317 
 1417000    373.14483    17.915472     285956.7    1.1367399 
 1418000     374.5143  -0.97182632    285855.74    1.1371414 
 1419000    370.75649    5.3583885    281831.66    1.1533778 
 1420000    383.63544  -0.75299864    283090.27    1.1482499 
 1421000     366.0084   -2.7708641    288623.36    1.1262372 
 1422000    374.08553    -13.66181    288299.43    1.1275027 
 1423000    398.83145     6.402531    291085.52    1.1167109 
 1424000    377.98229   -13.445902    289242.27    1.1238274 
 1425000    367.19619   -2.6454107    288700.28    1.1259372 
 1426000    376.54628    22.109042    288952.98    1.1249525 
 1427000    369.61317   -1.8530829    292262.12    1.1122152 
 1428000    382.43037   -44.083296    293308.38    1.1082478 
 1429000    376.42633   -0.8352185    290134.89    1.1203698 
 1430000    359.75386    158.27503    283826.07    1.1452732 
 1431000    395.25453   -1.8563569    289730.38    1.1219341 
 1432000    361.24782    17.401196    288478.19     1.126804 
 1433000     360.6401   -3.2355486    283258.01      1.14757 
 1434000    366.89221   -22.026266    284024.09    1.1444747 
 1435000    380.99916   -1.0262433    285400.68    1.1389545 
 1436000    371.66396     28.25044    285668.91    1.1378851 
 1437000      341.356    1.3347775    287627.49    1.1301367 
 1438000    376.03219      1.69631     285898.5    1.1369713 
 1439000    387.99597   -26.213881    287872.93    1.1291732 
 1440000    373.77489    1.6894607    284921.31    1.1408707 
 1441000    369.93215     10.31111    283618.36    1.1461119 
 1442000    387.91238    4.2129592    283525.02    1.1464892 
 1443000    368.23615   -5.5641806    284767.11    1.1414885 
 1444000    381.04143    19.740317    284092.42    1.1441994 
 1445000    358.87544    1.2861629    286979.73    1.1326876 
 1446000    380.98748    16.610149    284911.61    1.1409096 
 1447000    361.97299    29.511035     284664.2    1.1419011 
 1448000    379.29171   -3.1167175    283345.11    1.1472172 
 1449000    368.24034    3.2632186    284098.81    1.1441737 
 1450000    382.40121   -4.5698188    282523.74    1.1505525 
 1451000    366.61632    4.6055821     283812.9    1.1453263 
 1452000    369.14785    -69.50552     286776.8    1.1334891 
 1453000    350.92655   -67.421562    285384.32    1.1390198 
 1454000     381.7258   -12.610936    281369.93    1.1552705 
 1455000    366.49255   -2.4241083    283671.13    1.1458987 
 1456000    384.74887    3.1195432    283132.16      1.14808 
 1457000    369.31611    19.039677    284394.12    1.1429856 
 1458000     386.1132    95.938984    281910.51    1.1530552 
 1459000    363.26363     1.414571    284666.05    1.1418937 
 1460000    384.66765    7.5866842    282468.38    1.1507779 
 1461000    373.63519    -12.33366    286111.14    1.1361263 
 1462000    366.70585 -0.037515843    287426.27    1.1309279 
 1463000    385.31427   -1.8893351    290823.83    1.1177158 
 1464000    366.50767    6.4457543    288330.02    1.1273831 
 1465000    409.82641    3.5193684    288952.47    1.1249545 
 1466000    375.97478    6.6571844    289888.74    1.1213212 
 1467000    370.13854  -0.79176171    286689.22    1.1338354 
 1468000    379.45183    19.076137    283496.79    1.1466034 
 1469000    371.87806    2.5957421    284416.62    1.1428952 
 1470000    377.09934    53.262791    283271.46    1.1475155 
 1471000    371.43094   0.32098199    286112.03    1.1361227 
 1472000     370.5451    3.7130411    286575.02    1.1342872 
 1473000    372.28561   -102.50415    290746.93    1.1180114 
 1474000    374.27773   -6.8270483    286476.89    1.1346757 
 1475000    390.18763  -0.85204957       287429    1.1309171 
 1476000    364.48173  -0.18068164    285668.95    1.1378849 
 1477000    404.41763   -1.9726599    286829.61    1.1332804 
 1478000    360.24205   -3.5714083    286440.41    1.1348203 
 1479000    374.40525    1.8855128    284891.62    1.1409896 
 1480000    359.30116   0.19251233    282673.01    1.1499449 
 1481000    377.49031   0.35471492     284285.5    1.1434223 
 1482000    359.97787    1.4325779    283559.86    1.1463484 
 1483000    380.49082   -5.3899726    286500.37    1.1345828 
 1484000    369.39654    17.296612    286566.08    1.1343226 
 1485000     370.4086   0.77652158    283585.48    1.1462448 
 1486000    390.51161   -1.1665725    284677.04    1.1418497 
 1487000    367.71841    211.07947    278662.93    1.1664931 
 1488000    395.27547   -3.4104746    287108.68    1.1321789 
 1489000    357.28951    5.6998438    288482.27    1.1267881 
 1490000    390.35829   -32.126367    287736.56    1.1297083 
 1491000    364.88981   -98.278284    289413.07    1.1231641 
 1492000     349.9465    25.341545    282908.65    1.1489871 
 1493000    380.43378    23.174654    286076.35    1.1362644 
 1494000    366.26215   -33.283551     291587.8    1.1147873 
 1495000     381.9339    17.558484    284335.51    1.1432212 
 1496000    361.50041    1.6091741    286762.84    1.1335443 
 1497000    378.76036    10.346774    286650.16    1.1339899 
 1498000    376.05696   -36.290833    290583.91    1.1186386 
 1499000    363.98416    6.9113458    287608.62    1.1302109 
 1500000    377.19891   -7.7606611    287629.29    1.1301296 
 1501000    368.37039    -4.519551    286065.38     1.136308 
 1502000    364.53869    5.5438607    287667.93    1.1299778 
 1503000    366.93369   0.49527654     286808.6    1.1333634 
 1504000    367.12347   0.28161218    286105.23    1.1361497 
 1505000    383.93444    4.7930384    285506.62    1.1385318 
 1506000    363.68817    3.2910468    285917.09    1.1368973 
 1507000    389.33634 -0.085776945    283514.69     1.146531 
 1508000    361.37724    1.0437214    281274.92    1.1556607 
 1509000    388.21758   0.94593358    284158.39    1.1439338 
 1510000    361.50269  -0.14072403    283653.35    1.1459705 
 1511000    373.31013    4.9278251     284770.8    1.1414737 
 1512000    364.92194    57.358787    282442.11     1.150885 
 1513000    379.32011  -0.29505955    282205.45    1.1518501 
 1514000    362.61414   -8.3760379    285345.81    1.1391735 
 1515000    373.55267   -1.5419509    287901.07    1.1290628 
 1516000    372.78969    -72.11808    288518.49    1.1266466 
 1517000      374.174   0.92313688    282542.86    1.1504746 
 1518000    378.47917    67.441848    281049.44    1.1565879 
 1519000    371.83762    -1.303436    283755.28    1.1455589 
 1520000    381.15926   -15.443636     287849.8    1.1292639 
 1521000    360.22766    2.2437699    287385.73    1.1310874 
 1522000    381.23013   -3.1452341    288888.16    1.1252049 
 1523000    355.69595    10.240749    287873.93    1.1291692 
 1524000    378.75606   -4.6982925    289282.41    1.1236714 
 1525000    381.60386   -2.1144571    288068.34    1.1284072 
 1526000      373.356    1.4423256    288958.99    1.1249291 
 1527000    360.20787   -14.911917    288244.76    1.1277165 
 1528000    370.50906   0.16242597    288923.02    1.1250692 
 1529000    392.01757    4.6355996    289261.19    1.1237539 
 1530000    356.25537    1.7625595    287946.81    1.1288834 
 1531000     359.3843    -62.69302    287508.41    1.1306048 
 1532000    378.53145    6.0089152    287216.43    1.1317541 
 1533000    389.20342  -0.14863031    287915.61    1.1290057 
 1534000    381.08562   -20.302491    286685.61    1.1338497 
 1535000    370.20054   -1.9280812    283287.63    1.1474499 
 1536000     377.4774   -1.6807843    287601.74    1.1302379 
 1537000    363.43567   -66.313861    290834.54    1.1176746 
 1538000    376.17555   -2.0309889    291479.93    1.1151999 
 1539000    364.45872   -2.9594123    289573.76    1.1225409 
 1540000    384.19636   -2.6188525    288528.28    1.1266084 
 1541000     384.9894   -6.2198756    287569.09    1.1303662 
 1542000    365.99686    36.123473    288375.13    1.1272067 
 1543000    383.00504 -0.025594524    288278.04    1.1275863 
 1544000    360.31512   -1.4766624    286519.47    1.1345071 
 1545000    391.49314   -28.645066    287726.25    1.1297488 
 1546000    366.63216    40.904144    283685.44    1.1458409 
 1547000    373.30803   0.56793366    284655.98    1.1419341 
 1548000     379.9035    -2.088149    285182.42    1.1398262 
 1549000    369.73374    68.493531    282365.44    1.1511975 
 1550000    369.99553   -4.5982628    285868.54    1.1370904 
 1551000    373.12979   -1.2687497    285082.19    1.1402269 
 1552000    378.85656     3.721648    286745.34    1.1336135 
 1553000    384.22739    12.790892    282168.92    1.1519992 
 1554000    367.12122    4.2969938    285935.16    1.1368255 
 1555000    401.07044    2.5810388    286270.16    1.1354951 
 1556000    349.93025   -15.090646    285987.47    1.1366176 
 1557000     367.5802    80.389508    283336.76     1.147251 
 1558000    368.61053   -4.7742645    285056.67     1.140329 
 1559000    372.02955    3.5082665    285064.78    1.1402965 
 1560000    374.47538   -3.7154133    283927.25     1.144865 
 1561000     358.7034   -64.019467    285720.77    1.1376785 
 1562000     383.7294   -3.9319555    282398.63    1.1510622 
 1563000    366.73214  -0.44246644    282414.99    1.1509955 
 1564000    380.03944    43.824251    282508.16    1.1506159 
 1565000    356.70533   -12.804663    287996.04    1.1286905 
 1566000    373.74796   -1.0134549    285087.71    1.1402048 
 1567000    390.73428   -11.150646    289468.63    1.1229485 
 1568000    354.02192   -60.193003    294229.21    1.1047794 
 1569000     379.9983   -1.5202625    287234.01    1.1316849 
 1570000    366.78344   -5.7785432    287589.79    1.1302848 
 1571000    372.04417   -79.340357    291457.44    1.1152859 
 1572000    365.59524    6.3200303    290336.33    1.1195925 
 1573000    375.71675    1.6029209    289743.07    1.1218849 
 1574000    400.85021    45.096724    290053.37    1.1206847 
 1575000    359.71705   -17.928123    289857.55    1.1214418 
 1576000    380.30325   -3.9167316    288780.98    1.1256226 
 1577000    362.70375   0.25172288    286883.75    1.1330665 
 1578000    373.82612   -2.0914977     287014.4    1.1325508 
 1579000    372.08266   -2.4604035     287628.8    1.1301315 
 1580000     378.8089    -2.194068    287570.03    1.1303625 
 1581000    382.44927    10.605521    284885.96    1.1410123 
 1582000    352.73726    -31.87597    285891.89    1.1369976 
 1583000    388.05145    43.016147    285468.54    1.1386837 
 1584000    364.12137    22.484105    287983.37    1.1287401 
 1585000    371.75923   -9.7743343    290747.43    1.1180095 
 1586000    378.54191   -73.988182    292215.88    1.1123912 
 1587000    353.22717   -56.719058    288614.24    1.1262728 
 1588000    366.50676    -7.448949    288736.71    1.1257951 
 1589000    378.89749    31.838153    286213.84    1.1357186 
 1590000    372.23949    13.124258    286426.98    1.1348735 
 1591000    374.83727   -4.9735975    285407.35    1.1389278 
 1592000    352.34307    1.9678402    284961.24    1.1407109 
 1593000    373.31705   -0.2094896    280440.56     1.159099 
 1594000    375.65721    8.4438704    282899.49    1.1490243 
 1595000    363.45985   -11.808508    285249.42    1.1395584 
 1596000     369.9894    13.236951    289026.46    1.1246665 
 1597000    393.29346    3.3123318    288595.64    1.1263454 
 1598000    349.95661   -1.1198236    284745.66    1.1415745 
 1599000    370.47573    1.1915763    283310.92    1.1473556 
 1600000    391.23141   -113.36352    289627.23    1.1223336 
 1601000      361.977    8.1825768    282871.79    1.1491368 
 1602000    380.21473  -0.16894917    283284.48    1.1474627 
 1603000    359.04837    -1.365827    283698.46    1.1457883 
 1604000    355.54288   -14.147416    287422.55    1.1309425 
 1605000    393.23801    3.4411834    285913.54    1.1369115 
 1606000    356.03741   -2.9654993    288631.08    1.1262071 
 1607000    385.79138   -2.3920417    288664.44     1.126077 
 1608000     369.1298   -24.319966    290767.57     1.117932 
 1609000    366.70431    79.789013    285238.04    1.1396039 
 1610000    383.82658    12.514895    289922.93    1.1211889 
 1611000     365.9248   -4.5463975    290616.85    1.1185118 
 1612000    368.38193    -3.393411    288884.07    1.1252209 
 1613000    384.17443    4.9495615     290793.7    1.1178316 
 1614000    381.34407   -1.5405487    290107.97    1.1204738 
 1615000    353.69432    6.6646023    288218.21    1.1278204 
 1616000    389.63787    13.695111    290347.94    1.1195478 
 1617000    364.61774   -76.656357    296280.59    1.0971302 
 1618000    390.00418    7.5428718    294699.53    1.1030163 
 1619000    387.14295    -2.779084     294386.8     1.104188 
 1620000    372.57371   -2.2769981    292966.87    1.1095397 
 1621000    375.13297    1.9148092     290512.2    1.1189148 
 1622000    398.39637   -14.309712    290654.27    1.1183678 
 1623000    369.82458    81.377586    284352.35    1.1431535 
 1624000    367.46319    109.66578    283745.53    1.1455983 
 1625000    376.78845   -38.661235    292686.73    1.1106017 
 1626000    394.69164    109.63264    284590.44    1.1421971 
 1627000     355.1329    27.229453     286824.2    1.1333018 
 1628000    391.43431    23.732576    287674.98    1.1299501 
 1629000    366.87585   -9.7821804    291464.44    1.1152592 
 1630000    382.72879    7.1531891    289622.79    1.1223508 
 1631000    365.27128   -0.9754885    288746.86    1.1257556 
 1632000     363.0463   -2.4219962    289321.06    1.1235213 
 1633000    391.14517   -2.0425991    285886.81    1.1370178 
 1634000    359.38821    5.5012295     284077.3    1.1442603 
 1635000    366.15056    -0.921298    285620.51    1.1380779 
 1636000    387.46888   -2.5214918    290642.64    1.1184126 
 1637000    360.76114   -6.4101099    290857.63    1.1175859 
 1638000    372.10573   -6.5295078    291634.85    1.1146075 
 1639000    391.26043    23.026619    289953.44     1.121071 
 1640000    367.55231    16.400277    287004.63    1.1325893 
 1641000    386.74777    19.683038    284831.95    1.1412286 
 1642000    360.04782    3.2659627    284927.61    1.1408455 
 1643000    384.77132   -6.6759983    284780.97     1.141433 
 1644000    383.66989    2.4114186    285999.99    1.1365678 
 1645000    369.96398  -0.42773275    283288.42    1.1474468 
 1646000    384.57273   -5.1561465    286547.68    1.1343954 
 1647000    368.25247   0.16205527    285425.02    1.1388574 
 1648000    371.06066    5.9034855    286600.56    1.1341861 
 1649000    385.53752   -3.9229565    287552.98    1.1304295 
 1650000    367.56294    1.7731305    287712.48    1.1298029 
 1651000    379.59593    2.0556538    287079.17    1.1322952 
 1652000    357.74743   -3.1386041    286856.68    1.1331735 
 1653000    354.06531   -1.1849772    285739.02    1.1376058 
 1654000    367.60247   -3.0989918    286934.29     1.132867 
 1655000    385.06077    4.5420809    284382.31    1.1430331 
 1656000    353.92733   -2.6127888    284022.39    1.1444815 
 1657000    376.84526   -3.3499859    283759.72     1.145541 
 1658000    376.03109   -4.2935192     281580.6    1.1544062 
 1659000    372.07018    5.6130014     280982.6     1.156863 
 1660000    375.28064    3.4794647    284116.55    1.1441022 
 1661000    351.41647   -3.5717199    286251.16    1.1355705 
 1662000    370.24374   -3.2300097    285594.86    1.1381801 
 1663000    372.76674   -7.0182498    288244.88    1.1277161 
 1664000    365.13125   -19.031127    287948.67    1.1288761 
 1665000    374.31188    37.438265    284669.91    1.1418783 
 1666000    391.09841   -51.308355    287147.34    1.1320264 
 1667000    382.69782    40.746091    288013.27    1.1286229 
 1668000    374.62699   -72.530454    292754.51    1.1103446 
 1669000    372.06075   -20.726858    289038.56    1.1246194 
 1670000    366.93417    60.771155    284665.79    1.1418948 
 1671000    374.48101    57.299714    282440.73    1.1508906 
 1672000    372.85983   -29.824578    286808.39    1.1333643 
 1673000    349.48722    88.620622    279961.19    1.1610837 
 1674000    391.43965   -11.648987    285008.56    1.1405215 
 1675000    371.50004   -18.827244     285959.9    1.1367271 
 1676000    391.30094   -8.4558812    286186.91    1.1358255 
 1677000    380.57595    24.878237    284630.54    1.1420362 
 1678000    370.25271    19.269067     284710.9    1.1417139 
 1679000    359.64144   -23.671566    288362.95    1.1272543 
 1680000      378.367    28.176094     286632.7     1.134059 
 1681000    364.52347   -93.086761    288298.13    1.1275078 
 1682000    367.16571   -124.18025    289589.98     1.122478 
 1683000    367.89208    96.874301    280498.07    1.1588614 
 1684000    369.42802   -34.984525    286558.74    1.1343516 
 1685000    376.98473    40.035526    284027.35    1.1444615 
 1686000     371.1551    48.666568     281417.4    1.1550756 
 1687000    367.11793   -130.71465    291751.02    1.1141636 
 1688000    384.34245     47.71037    283296.67    1.1474134 
 1689000    374.14043   -7.7891476    286781.73    1.1334696 
 1690000     378.5403     4.397383     283002.6    1.1486056 
 1691000    355.27238   -2.2831493    282069.61    1.1524048 
 1692000    363.56971    24.393224    285235.67    1.1396134 
 1693000    384.53734    -22.38772    288999.89    1.1247699 
 1694000    361.70759   -2.1554463     287773.7    1.1295625 
 1695000    383.05054   -3.3637589     288323.4    1.1274089 
 1696000     366.6806   -68.972947    292164.54    1.1125867 
 1697000    330.43084   -8.6389067     288546.9    1.1265357 
 1698000    376.94514  -0.86450282    288333.18    1.1273707 
 1699000    369.54367   -17.056746    288258.84    1.1276614 
 1700000    376.10956   -11.696474    290092.54    1.1205334 
 1701000    354.27556   -1.7205335    287844.48    1.1292847 
 1702000    379.27582   -24.330865    289485.59    1.1228828 
 1703000    364.65872   -18.278739    290419.59    1.1192715 
 1704000    404.29655   -2.5175544    286935.02    1.1328641 
 1705000    347.60723    1.9666057    286710.28    1.1337521 
 1706000    395.20278    51.242391    286917.56     1.132933 
 1707000    363.84461    17.337955    287750.56    1.1296533 
 1708000    392.62816   0.19868785    288456.39    1.1268892 
 1709000    355.48909   -4.5341305    289235.13    1.1238551 
 1710000    378.30352   -100.57849    290065.04    1.1206396 
 1711000    376.49237    9.2974952    288694.24    1.1259607 
 1712000    366.09003   -2.6926251    288766.07    1.1256807 
 1713000    382.40748   -2.7810672    286760.96    1.1335517 
 1714000    357.05055    2.9152557    284715.95    1.1416936 
 1715000    360.77768    -20.88777       284637    1.1420103 
 1716000    370.82215   0.25402554    287740.41    1.1296932 
 1717000    381.67206   -9.2282272    289412.88    1.1231649 
 1718000    385.10632   -21.341372    290436.14    1.1192078 
 1719000    356.37834    4.4716097     287337.3     1.131278 
 1720000    359.02335    6.0013783    290124.68    1.1204093 
 1721000    376.05812   -67.622589    297245.68    1.0935681 
 1722000    366.09933    4.6477592     293306.2    1.1082561 
 1723000     355.6454    1.5666232    293285.86     1.108333 
 1724000    385.54677    4.5336854    291085.84    1.1167097 
 1725000    368.05613    12.522717    288768.18    1.1256725 
 1726000    401.10676    124.92369    280897.39    1.1572139 
 1727000    364.44816    14.626002    287376.91    1.1311221 
 1728000    368.70203   0.73504643    286856.77    1.1331731 
 1729000    360.05133    9.6240322    286492.09    1.1346156 
 1730000    384.13908     154.6102     281937.4    1.1529452 
 1731000    358.03683    15.845381    287267.37    1.1315534 
 1732000    395.41005   -1.5870937    287534.22    1.1305033 
 1733000    350.11908   -16.591716    287955.71    1.1288485 
 1734000     390.7572   -2.4579346    290485.07    1.1190192 
 1735000    364.85471   -1.6666731    290195.21     1.120137 
 1736000    341.99071   -6.9125554     287656.9    1.1300211 
 1737000    392.03052   -5.2522909    290332.45    1.1196075 
 1738000    372.06352    3.5557123    290736.12     1.118053 
 1739000    397.09688    11.740765    290587.17    1.1186261 
 1740000    369.82388    6.7469686    290653.21    1.1183719 
 1741000    380.95468    8.8893918    288247.51    1.1277058 
 1742000    362.29881    3.3936827    287818.52    1.1293866 
 1743000    383.64169     -5.32548    291766.07    1.1141062 
 1744000    361.57489    5.2822546     291237.9    1.1161266 
 1745000    379.68482   -3.6527468     291842.8    1.1138133 
 1746000    370.70172    99.343727    285684.49     1.137823 
 1747000    376.27369    1.5595634    289181.25    1.1240645 
 1748000     383.1591    -7.920887    288988.17    1.1248155 
 1749000    367.32021   -48.233553    293051.29    1.1092201 
 1750000    375.51918   -1.5856448    288962.48    1.1249155 
 1751000    368.82784    7.8644934    288746.26    1.1257579 
 1752000    387.90126    89.950979    284185.53    1.1438245 
 1753000    372.26124   0.68756053    288167.95    1.1280171 
 1754000    351.25945    -29.41501    288969.46    1.1248884 
 1755000    382.21275   -10.720194    290073.54    1.1206068 
 1756000    371.08208  -0.44568394    289067.57    1.1245066 
 1757000    368.06145    109.67617     285273.9    1.1394606 
 1758000     370.9012   -2.2288473    292162.88     1.112593 
 1759000    362.22853   -2.1615125    291541.87     1.114963 
 1760000     379.9006   -31.437466    294262.74    1.1046536 
 1761000    364.28328    6.9859721    291255.43    1.1160595 
 1762000    383.65459    1.4961421    292983.16     1.109478 
 1763000    363.42813    45.653267    290044.89    1.1207175 
 1764000    390.71309    3.2178617    292362.75    1.1118324 
 1765000    362.24293       16.135    289771.55    1.1217747 
 1766000     385.5875   -2.8919613    292114.06     1.112779 
 1767000     362.3735   -4.7583073    293337.21    1.1081389 
 1768000    368.12584    33.635302     291580.8    1.1148141 
 1769000    394.27269     2.883187    293817.51    1.1063275 
 1770000    383.35354    10.035417    292990.06    1.1094519 
 1771000    360.87412    9.0911945    288930.14    1.1250414 
 1772000    356.51099    1.8128436    286186.61    1.1358266 
 1773000    385.25045    6.3210392    287379.26    1.1311129 
 1774000    370.50608    -11.94535       291105    1.1166362 
 1775000    372.00039    3.4937126    291277.81    1.1159737 
 1776000    388.57273   -7.4000882    288750.72    1.1257405 
 1777000    359.30669   0.53613634    286106.63    1.1361442 
 1778000    378.40125   0.09475403    285622.44    1.1380702 
 1779000    367.55083     13.57682    284557.95    1.1423275 
 1780000    387.69497   -26.853338    286945.67     1.132822 
 1781000    357.00238   0.30198902    284844.53    1.1411783 
 1782000    367.61931    11.029572    283151.88    1.1480001 
 1783000    381.32317   -13.730796    284097.32    1.1441797 
 1784000    378.80881   -1.0456474    283088.59    1.1482567 
 1785000    367.50838  -0.94145837    284347.28    1.1431739 
 1786000    382.16354    8.8408272    284980.72    1.1406329 
 1787000    377.94227    1.9177767    284638.65    1.1420037 
 1788000    402.41194   -6.0362124    287501.01    1.1306339 
 1789000    377.62237   0.30691746    287101.47    1.1322073 
 1790000    349.17251   -110.04507    291998.61    1.1132189 
 1791000    374.37931  -0.94747307    288249.33    1.1276987 
 1792000     372.6418   -40.005727    290008.39    1.1208586 
 1793000    369.31953   -1.9465804    287910.84    1.1290244 
 1794000    353.39513   -16.955489    286913.07    1.1329507 
 1795000    383.58367   -1.6685952    289618.13    1.1223689 
 1796000    368.23069    73.762746    282027.94    1.1525751 
 1797000    362.66755    2.1802154    286147.94    1.1359802 
 1798000    366.52275   -52.429283    289682.49    1.1221195 
 1799000    376.72304    2.4946955    287249.89    1.1316223 
 1800000    355.19923   -74.714229    288219.84     1.127814 
 1801000    388.07627   0.31083768    286116.37    1.1361055 
 1802000    368.07214   -13.517511    287323.48    1.1313325 
 1803000    366.38796   -2.2375217    284556.24    1.1423344 
 1804000     370.1409  -0.48296133    286835.42    1.1332575 
 1805000    367.37239    2.2933553    287649.25    1.1300512 
 1806000    403.26838    16.285747     285258.4    1.1395226 
 1807000    355.48266   -1.8577247    286231.23    1.1356496 
 1808000    385.76607    8.1416082    285881.85    1.1370375 
 1809000    364.90191   -95.432661    292265.88    1.1122009 
 1810000    377.34349    9.5274747    287568.05    1.1303703 
 1811000    373.03723   -1.8980985    288755.81    1.1257207 
 1812000    374.44419   -53.404555    290164.59    1.1202552 
 1813000    357.33259    50.411256    285907.69    1.1369347 
 1814000    372.98072    41.097448    287035.32    1.1324683 
 1815000    360.86444  -0.66961238     290873.5    1.1175249 
 1816000    374.68719   -5.9689117    291900.18    1.1135943 
 1817000    370.99073   -6.8623648    292439.74    1.1115397 
 1818000    376.63806    2.2304685    290602.39    1.1185675 
 1819000    342.84232   0.54112723     291961.2    1.1133616 
 1820000    390.48778    1.8542657    289889.44    1.1213185 
 1821000     355.3462    1.7115491    290512.21    1.1189147 
 1822000     379.7489   0.93488665    293574.83     1.107242 
 1823000    369.45007   -5.0644798    293661.08    1.1069168 
 1824000    387.18521   0.78200677    294241.87    1.1047319 
 1825000    380.54432  0.060857971    292996.26    1.1094284 
 1826000    363.59858   -5.2683995    293472.63    1.1076276 
 1827000    384.12346    1.4832828    292292.57    1.1120994 
 1828000    367.30557    1.3181101    290852.79    1.1176045 
 1829000    366.44085    1.6098324    292105.65     1.112811 
 1830000    388.25385   0.77110598    289838.32    1.1215163 
 1831000    372.78108    2.6964728    289150.17    1.1241853 
 1832000     385.9413   -1.8849948    289252.02    1.1237895 
 1833000    347.28539    12.724199     289796.7    1.1216773 
 1834000     378.4749   -23.065391    292586.65    1.1109816 
 1835000    382.24087   -1.1497563    293287.14    1.1083281 
 1836000    353.57274   -3.3702116    291794.19    1.1139988 
 1837000     374.1824   -34.943512    292703.36    1.1105386 
 1838000    365.58626   -23.741173    290673.23    1.1182949 
 1839000    380.84421    -6.814779    292369.77    1.1118057 
 1840000    345.09068   -38.339015    287485.13    1.1306963 
 1841000    377.59662    84.291261     282692.3    1.1498664 
 1842000    365.88697   -2.0433655    283190.66    1.1478429 
 1843000    397.33922  -0.74639459    282402.16    1.1510478 
 1844000    366.32808   -4.5232155     282670.7    1.1499543 
 1845000    363.00338   -26.877749    283947.03    1.1447853 
 1846000    375.95351    -3.960143    283511.92    1.1465422 
 1847000    367.96078 -0.097019688     281722.9    1.1538231 
 1848000    371.94367   -4.1233935    282188.62    1.1519188 
 1849000    367.93783   -3.2182574     283350.2    1.1471966 
 1850000    399.15246    1.9566615    283862.84    1.1451248 
 1851000    369.82549    2.1070087    285224.22    1.1396591 
 1852000     385.5012   -60.098413    287197.66    1.1318281 
 1853000    362.46722    8.8677225    286605.45    1.1341668 
 1854000    373.59015    1.4820176    288205.97    1.1278683 
 1855000    364.38878   -6.0912876    284860.97    1.1411124 
 1856000    382.33425   -26.861779    283537.74    1.1464378 
 1857000    385.91146   -1.1300168    285584.09     1.138223 
 1858000    366.31359   0.61164225    281084.38    1.1564441 
 1859000    378.70348    -41.97603    285893.28     1.136992 
 1860000    371.06878    2.2839986    285485.12    1.1386176 
 1861000    380.83488   -46.040505    284540.65     1.142397 
 1862000    366.57602    18.658135    282325.21    1.1513615 
 1863000    390.43853    4.8522718    283641.16    1.1460198 
 1864000    365.31561    20.231107    283381.19    1.1470711 
 1865000    383.30489   -2.2577376    284807.44    1.1413269 
 1866000    359.74666   0.82300364    287082.69    1.1322814 
 1867000    377.32632    1.6828146    286340.35    1.1352168 
 1868000    361.58595   0.50461917    287520.05     1.130559 
 1869000    380.57149  -0.50069995    287351.13    1.1312236 
 1870000    371.07303   -0.8347395    286717.44    1.1337238 
 1871000    360.86006    3.3563538     286267.6    1.1355053 
 1872000    392.07569   -61.446739    287421.03    1.1309485 
 1873000    361.57962    1.2149586    281872.49    1.1532107 
 1874000    383.32445     5.393235    281838.13    1.1533513 
 1875000    369.00651    41.281612    280486.13    1.1589107 
 1876000    380.71595    16.299198    280903.13    1.1571903 
 1877000    375.00321    2.0350207    281967.07    1.1528239 
 1878000    365.34591    1.7032143    284711.79    1.1417103 
 1879000    375.07664    1.1202317    289448.87    1.1230252 
 1880000    365.02814    2.6498228    288397.29    1.1271201 
 1881000    382.87052   -1.8310582    286198.95    1.1357777 
 1882000    365.77132    1.4588277    285954.85    1.1367472 
 1883000     377.4552   0.49867311    285205.38    1.1397344 
 1884000    367.82359    1.2633838    284813.25    1.1413036 
 1885000    349.10106   0.69422731    284525.15    1.1424592 
 1886000    383.51396   0.33682447    286382.29    1.1350506 
 1887000    375.55839     1.527437    284496.08     1.142576 
 1888000    390.70228   0.96767284    284738.18    1.1416045 
 1889000      362.339  -0.57287389     284553.4    1.1423458 
 1890000    385.01723    1.3540754    284595.81    1.1421756 
 1891000    375.70833   0.25430802    286008.69    1.1365332 
 1892000     361.1018   0.59518068    288129.05    1.1281694 
 1893000    371.25716   -2.2055511    286634.79    1.1340507 
 1894000    376.00192    131.30918    283347.84    1.1472061 
 1895000    387.97039    3.7013337    287802.28    1.1294503 
 1896000    364.45098    47.738391     286040.1    1.1364084 
 1897000    363.64608   -20.890998    286891.46    1.1330361 
 1898000    381.54979  -0.97389155    285380.64    1.1390345 
 1899000    359.02851   -55.840649    288674.18     1.126039 
 1900000    383.26361   -91.715225    293316.26    1.1082181 
 1901000    358.52548    7.0279791    285349.46    1.1391589 
 1902000    380.98064    2.4464868    287302.86    1.1314137 
 1903000    389.35734  -0.33330327    287637.99    1.1300954 
 1904000    353.97071    4.6016296     287083.1    1.1322798 
 1905000    375.25115    152.33026    282065.93    1.1524199 
 1906000    370.70752  -0.51477327    287837.15    1.1293135 
 1907000    358.40946     2.820274    283584.55    1.1462485 
 1908000    388.92317    27.947184    284455.54    1.1427388 
 1909000     353.1681    1.0114841    287981.47    1.1287476 
 1910000    363.18303    6.3858033    287819.81    1.1293815 
 1911000    373.13077    45.966343    285373.91    1.1390613 
 1912000    361.72818  -0.33246568    286490.62    1.1346214 
 1913000    380.69515  0.072464958    286929.23    1.1328869 
 1914000    381.28785    88.796985       281804     1.153491 
 1915000    375.93133   0.11184714    286641.49    1.1340242 
 1916000    385.71529  -0.81386567    289507.94    1.1227961 
 1917000    366.87609    7.3973387    287505.73    1.1306153 
 1918000    377.35712   -87.219974    290183.69    1.1201814 
 1919000    356.90367    8.1805411    287789.84    1.1294992 
 1920000    393.29284    1.0084914    288098.92    1.1282874 
 1921000    385.74248    1.7800891     286591.7    1.1342212 
 1922000    356.99122    1.4266966    286113.16    1.1361182 
 1923000    379.82805     1.485029    288126.65    1.1281788 
 1924000     381.9968  -0.72092235    289976.48    1.1209819 
 1925000     366.2277    7.3926663    290108.87    1.1204703 
 1926000    381.57804   -0.8930685    287918.44    1.1289947 
 1927000      360.784    1.5031009    288091.65    1.1283159 
 1928000    361.36875    3.6624295    287661.01     1.130005 
 1929000    383.63713   -113.23039    293494.53    1.1075449 
 1930000    365.23573    1.3014029    286349.69    1.1351798 
 1931000     369.2831   0.34520314    287897.32    1.1290775 
 1932000    379.79001   0.59071613    288481.29    1.1267919 
 1933000     370.9484    0.3340383    288132.13    1.1281573 
 1934000    361.11287  -0.16882203     289353.8    1.1233942 
 1935000    375.59682    109.13116    283057.57    1.1483826 
 1936000    385.28028    6.6885454       285515    1.1384984 
 1937000    361.56602    1.9766283    284015.64    1.1445088 
 1938000    372.35818    1.7926236    283835.24    1.1452362 
 1939000    377.34213   -1.2393775    286347.06    1.1351902 
 1940000    379.50781    7.3643352    283133.83    1.1480733 
 1941000    358.56969   -140.83005    292137.78    1.1126886 
 1942000    378.99941   -1.0855168    288475.23    1.1268156 
 1943000    359.51235   0.13148181    286353.57    1.1351644 
 1944000    373.49843  -0.95418325    287147.39    1.1320262 
 1945000    373.75938   -6.4651857    285558.17    1.1383263 
 1946000    349.73765    1.0679634    284667.92    1.1418862 
 1947000    376.34102    2.6029293    285779.63    1.1374442 
 1948000    365.22309    24.783625    285062.87    1.1403042 
 1949000    380.82884       34.185    285298.57    1.1393621 
 1950000    382.93332  -0.79637816    284125.54    1.1440661 
 1951000    374.48229  -0.91976813    281732.22    1.1537849 
 1952000    384.52967    88.834286    282004.17    1.1526722 
 1953000     363.1971    2.6587072    286584.75    1.1342487 
 1954000    370.81524    68.499083    281145.03    1.1561947 
 1955000    385.40403    3.1614859    287524.55    1.1305413 
 1956000    370.19941    35.367959    283819.64    1.1452991 
 1957000    384.99791   -1.6170108    284234.63     1.143627 
 1958000    361.74148     1.707521    287268.41    1.1315493 
 1959000    376.91182    1.5545263    287371.87     1.131142 
 1960000    376.00709    2.8034373    289627.92     1.122331 
 1961000    376.24073    18.869567    288912.52    1.1251101 
 1962000     372.6145    28.005348    285246.41    1.1395705 
 1963000    393.77185    2.0185834     286684.7    1.1338532 
 1964000    367.30961   -4.0808814    285442.73    1.1387867 
 1965000    380.37035    63.637478    286028.46    1.1364547 
 1966000    389.33172  0.087605288    288316.67    1.1274353 
 1967000    346.12809   -2.7711803    285504.27    1.1385412 
 1968000    389.29774    1.4722309    288331.17    1.1273786 
 1969000    374.96943  -0.94721388    287644.32    1.1300706 
 1970000    377.22851   0.50058086    290487.14    1.1190113 
 1971000    373.62322    17.750657    288514.39    1.1266626 
 1972000    364.82767  -0.88961253    289407.89    1.1231843 
 1973000    381.62795    3.7247417       288907    1.1251315 
 1974000     369.8877   -19.000207    290065.62    1.1206374 
 1975000    364.21701    1.0629317    285911.08    1.1369212 
 1976000    374.30436   -86.420545    288095.46     1.128301 
 1977000     357.5079   -2.9702994    284962.66    1.1407052 
 1978000    383.95306    1.3646027    288348.33    1.1273115 
 1979000     372.2333    33.271292    283454.03    1.1467764 
 1980000    389.49797     -19.2045    286777.37    1.1334869 
 1981000    381.26417   -24.600457    287365.01     1.131169 
 1982000    355.83711   -94.345425    289408.01    1.1231838 
 1983000    391.89462  0.056606438    285102.97    1.1401438 
 1984000    358.56321    1.2215759    285059.73    1.1403167 
 1985000    389.61007    4.7674919    285598.79    1.1381644 
 1986000    379.52795   -7.7738417    284989.62    1.1405973 
 1987000    374.69815    -2.553487    288779.29    1.1256291 
 1988000    381.07541   -1.1188139    289876.47    1.1213686 
 1989000    368.33841    1.4890994    288839.69    1.1253937 
 1990000    379.34856   0.76107753    288677.37    1.1260265 
 1991000    367.82294    1.6729372    287623.82    1.1301511 
 1992000    361.03585   0.12898959    288611.57    1.1262833 
 1993000    372.51045    1.0551273    290139.45    1.1203522 
 1994000    373.29884    50.751332    288646.86    1.1261456 
 1995000    374.02122    1.2328695     290453.1    1.1191424 
 1996000    388.61362 -0.039550329    289538.76    1.1226766 
 1997000    364.74273    1.3212405    289637.95    1.1222921 
 1998000    382.87444    2.3312905    289748.25    1.1218649 
 1999000    383.47647  0.033156836    288094.77    1.1283037 
 2000000    374.17671 -0.015013553    288344.19    1.1273277 
 2001000    403.56724   0.42248182    287926.53    1.1289629 
 2002000    363.33953   -3.8626199     286500.1    1.1345838 
 2003000    377.91099  -0.59298897    288238.41    1.1277414 
 2004000    371.46233    1.6166403    287934.65    1.1289311 
 2005000    381.60243  -0.46327897    285330.03    1.1392365 
 2006000    356.58743   -148.40307    290514.46     1.118906 
 2007000    384.02955   -1.8502875    285775.71    1.1374598 
 2008000    356.74354  -0.51707945     288980.2    1.1248465 
 2009000    375.03105   0.22000089    285160.86    1.1399123 
 2010000    365.85118    1.7578182    281601.91    1.1543188 
 2011000    386.23216    1.3991456    283295.29    1.1474189 
 2012000     363.0028    1.8313387     283369.1    1.1471201 
 2013000    386.00206  -0.75269956    283804.41    1.1453606 
 2014000    365.31976   0.42257224     283243.5    1.1476287 
 2015000    384.61231    1.7597849     282946.4    1.1488338 
 2016000    368.29064  -0.31392283    285067.46    1.1402858 
 2017000    404.95536    1.3980417    284832.99    1.1412245 
 2018000    368.32027  -0.87458179    284593.71     1.142184 
 2019000    366.86176  -0.71485624    286137.73    1.1360207 
 2020000    391.31329      1.59968    287266.29    1.1315577 
 2021000    362.55087    1.1906565    287475.17    1.1307355 
 2022000     398.1135   -2.2110053    288560.92     1.126481 
 2023000    367.13292   -35.042277    286989.01     1.132651 
 2024000    366.61286    24.360009    285896.79    1.1369781 
 2025000    385.49781   0.25756554    286469.82    1.1347038 
 2026000    365.15246   0.61317487     284375.4    1.1430608 
 2027000    361.04715     2.152462    282474.54    1.1507528 
 2028000    362.13978   0.53464607    283756.54    1.1455538 
 2029000    389.09702   0.63662217    285399.16    1.1389606 
 2030000    364.22704    2.3881164    288257.77    1.1276656 
 2031000    371.63169   -16.951364    289602.19    1.1224307 
 2032000    388.24028    16.937991    288262.99    1.1276452 
 2033000    370.26803    4.5733495    289116.95    1.1243145 
 2034000    394.96415    3.6424679    287302.02     1.131417 
 2035000    363.30398    -2.602388    284178.77    1.1438517 
 2036000    379.61674    67.798582    281985.77    1.1527475 
 2037000    375.18817    -6.402981    285077.29    1.1402465 
 2038000    380.68387    1.0600301    285151.41    1.1399501 
 2039000    370.41182    1.4408941    282601.78    1.1502347 
 2040000    383.09631     1.179227    284452.37    1.1427515 
 2041000    373.66373   -3.7001578    286771.95    1.1335083 
 2042000    380.93168    27.029074    285509.89    1.1385188 
 2043000    367.63294   0.78933825    284520.84    1.1424765 
 2044000    383.36578   -2.2285606    285545.01    1.1383788 
 2045000    361.60069   -27.072299    288240.38    1.1277337 
 2046000    354.85321     19.35064    284628.38    1.1420449 
 2047000    360.49279   0.38155187    285507.82    1.1385271 
 2048000    380.84059    7.7096813    284184.13    1.1438302 
 2049000    365.53861   -36.077349    287373.43    1.1311358 
 2050000    395.88224     91.58906    284494.53    1.1425822 
 2051000    380.40445    120.29153    280954.88    1.1569772 
 2052000    390.86332    149.50099    278978.37    1.1651741 
 2053000    381.07731    4.6547112    282237.36    1.1517199 
 2054000    406.07501   0.57651479    286634.45     1.134052 
 2055000    376.89163    46.104998    280958.62    1.1569618 
 2056000    376.99758    2.7974723    285399.33    1.1389599 
 2057000    357.93712    152.04806    278959.47    1.1652531 
 2058000    378.12224    1.4197518    282080.87    1.1523588 
 2059000     365.3686    15.209032     281311.7    1.1555097 
 2060000    394.95942   0.36424316    284300.26    1.1433629 
 2061000    368.57001   -65.183745    286634.19    1.1340531 
 2062000    384.11438    2.5860372    287428.56    1.1309189 
 2063000    350.83969    8.4461633    287603.07    1.1302326 
 2064000      385.788   -11.041109    287155.91    1.1319927 
 2065000    362.01754     1.658613    287607.15    1.1302166 
 2066000    393.80503    81.589149    283682.49    1.1458528 
 2067000     367.1391   -1.6115663    286225.51    1.1356723 
 2068000    374.52065   -47.490945    288752.91     1.125732 
 2069000    376.90589   -1.7740428    286842.55    1.1332293 
 2070000    361.58621    12.132416    285226.98    1.1396481 
 2071000    370.15286   -26.857745    289376.98    1.1233042 
 2072000    378.16805    3.3178623    289468.21    1.1229502 
 2073000     374.7032   -23.488047    291786.82     1.114027 
 2074000    378.57663    7.7914383    289970.92    1.1210034 
 2075000    374.19235   -1.2071732    288330.49    1.1273812 
 2076000    364.04339   -82.059479    290147.64    1.1203206 
 2077000    367.76078    3.3891074    287083.37    1.1322787 
 2078000    377.88792    7.0556658    288226.24     1.127789 
 2079000    382.65557    114.20395    278097.66    1.1688641 
 2080000    350.11858   -10.911302    283069.96    1.1483323 
 2081000    377.85153    3.9862668    286019.16    1.1364916 
 2082000    372.54661    5.2341704    286717.06    1.1337253 
 2083000    368.61047   -9.5311852    284741.55     1.141591 
 2084000    368.72117    107.49128    281500.51    1.1547346 
 2085000    381.98048     11.11106    284097.62    1.1441785 
 2086000    360.18578   -1.3363868    285921.25    1.1368808 
 2087000    374.44117  -0.23236502     285929.9    1.1368464 
 2088000    376.36924    0.9594313    287119.75    1.1321352 
 2089000    363.89133   -79.280754    289621.38    1.1223563 
 2090000    365.19815   -9.0507157    284594.47     1.142181 
 2091000    378.05229    1.5267324    284176.24    1.1438619 
 2092000    365.47111   -5.4896526    284286.09    1.1434199 
 2093000    374.64125   -136.62602    290442.99    1.1191814 
 2094000    382.34413   -3.6984504    284456.61    1.1427345 
 2095000    370.42002    2.3206585    284414.93     1.142902 
 2096000     367.1702    22.074711    283598.65    1.1461916 
 2097000    376.03118  -0.69110337    283284.68    1.1474619 
 2098000     358.1599   -2.1173097    283002.88    1.1486045 
 2099000    373.99422   -33.733659    281193.57    1.1559951 
 2100000    369.32644    6.4956774     281812.9    1.1534546 
 2101000    367.92851   -1.9141078    285198.01    1.1397639 
 2102000    377.67635    3.2356585    284420.12    1.1428811 
 2103000    365.70167    -44.33583    285087.94    1.1402039 
 2104000    378.34298     3.990294    285827.79    1.1372525 
 2105000    357.68213    12.013794    287005.44    1.1325861 
 2106000    373.66608    44.735317    287626.67    1.1301399 
 2107000    380.93363   -1.9046462    289257.73    1.1237673 
 2108000    395.84972  -0.92813082    285487.54    1.1386079 
 2109000    359.60841    26.965936    285043.57    1.1403814 
 2110000     377.8482    2.5152606    290790.07    1.1178455 
 2111000    361.57771    6.0988639    289959.87    1.1210461 
 2112000    378.24282   -47.250011    290703.46    1.1181786 
 2113000    386.94141    0.8118155    291227.38     1.116167 
 2114000    353.45159   -1.3451123     291172.7    1.1163766 
 2115000    379.96904   -1.7121664    292118.96    1.1127603 
 2116000    361.40985   -53.602934    293835.95    1.1062581 
 2117000    373.79466    16.256146    286591.64    1.1342214 
 2118000     403.4728  -0.41110294    288686.31    1.1259917 
 2119000    357.66346    15.859917    288287.04    1.1275511 
 2120000    379.54897    17.125029    287135.84    1.1320718 
 2121000      389.956    3.9264871    286805.42     1.133376 
 2122000     374.0475    115.37257    281453.01    1.1549295 
 2123000    383.91052   0.50051852    285794.94    1.1373833 
 2124000     368.7998    3.4361408    285626.69    1.1380533 
 2125000    371.08496    28.275062    285328.19    1.1392439 
 2126000    370.23502    1.2606518    286660.71    1.1339482 
 2127000    372.20347   -2.6551624    288233.11    1.1277621 
 2128000    367.52105    2.2456646    289152.94    1.1241746 
 2129000    382.88127   -6.5443684    285942.77    1.1367952 
 2130000     383.0174    3.2441513     285257.4    1.1395265 
 2131000    355.84568   -51.471176    289353.54    1.1233952 
 2132000    382.84236   -3.4440453    288699.39    1.1259406 
 2133000    369.84134   -7.5667788    289226.74    1.1238877 
 2134000    373.89942    -1.473093    289199.85    1.1239922 
 2135000    351.46487   -22.214216    285447.87    1.1387662 
 2136000    398.09973    2.6800035    284457.02    1.1427328 
 2137000    368.57246   -2.2473738    282726.27    1.1497283 
 2138000    356.67251    -101.1378    290005.04    1.1208715 
 2139000    363.44941    92.405311    285447.57    1.1387674 
 2140000    360.86884    17.205265    288946.16    1.1249791 
 2141000    374.51697    1.1967433    287283.12    1.1314914 
 2142000      367.103    0.3354193    286497.73    1.1345932 
 2143000    381.60399    1.7048393    286916.13    1.1329387 
 2144000    363.44159    40.009203     285072.1    1.1402672 
 2145000    377.86585   -9.6122907    284700.02    1.1417575 
 2146000     357.8334    2.0140322    285496.32    1.1385729 
 2147000    381.93379    -2.540399    287185.75    1.1318751 
 2148000    368.04481   -88.309782    291673.59    1.1144594 
 2149000    380.22185     -16.1084    284922.56    1.1408657 
 2150000    365.00378    1.3492699    284449.17    1.1427644 
 2151000    375.91134    4.3071051    286916.05     1.132939 
 2152000    361.24612   -4.6893461     284912.5     1.140906 
 2153000    367.74154   -1.3807728       288591    1.1263635 
 2154000    392.63705    4.2335785    286243.09    1.1356025 
 2155000    391.50039    5.1523895    284069.51    1.1442917 
 2156000    356.51374   -5.2295962    283995.78    1.1445888 
 2157000    375.09633   -8.4154273    284029.52    1.1444528 
 2158000    395.54771     10.25577    284327.91    1.1432518 
 2159000    363.00537    1.1856418    284655.98    1.1419342 
 2160000    374.97415  -0.10854878    286185.49    1.1358311 
 2161000    376.21107    38.370798    284085.96    1.1442255 
 2162000    345.96079     1.938563     284989.2    1.1405989 
 2163000    375.00461   -1.0922223    285997.83    1.1365764 
 2164000    375.56653     65.19594    282952.99     1.148807 
 2165000    386.16861    31.546443     284898.5    1.1409621 
 2166000    385.80084   -1.4297785    287665.03    1.1299892 
 2167000    373.12062    2.5746753    288957.63    1.1249344 
 2168000    373.70559   -15.438581     288151.7    1.1280807 
 2169000    360.56818   0.67732766    285153.78    1.1399407 
 2170000    374.65857   -0.6965245     287058.3    1.1323776 
 2171000     350.1331    126.70112    284495.45    1.1425785 
 2172000    375.15753  -0.89167366    288350.96    1.1273012 
 2173000    353.86852    1.6443121    286954.58    1.1327869 
 2174000    391.49015  -0.46298516    288469.01    1.1268399 
 2175000    360.15971     9.446474     285954.8    1.1367474 
 2176000    365.72802  -0.50192042    287319.86    1.1313467 
 2177000    378.40544   -3.1899483     287419.9    1.1309529 
 2178000    368.59161    13.317375     286744.8    1.1336156 
 2179000    390.54923   -1.4194904    285507.47    1.1385285 
 2180000    366.26396   -149.27734    292210.99    1.1124098 
 2181000    376.17516    3.0199039    286601.82    1.1341812 
 2182000    377.35713    7.2012284    284248.66    1.1435705 
 2183000    380.06107    1.1163022    284714.65    1.1416988 
 2184000    366.64438    63.102271     286178.2      1.13586 
 2185000    359.98246    10.181245    287055.55    1.1323884 
 2186000    388.37976    3.1694053     286237.2    1.1356259 
 2187000    358.88988   -38.386391    287076.29    1.1323066 
 2188000    381.98227    5.3496178    284449.78    1.1427619 
 2189000    369.18115    2.2380956    285139.17    1.1399991 
 2190000    404.08498    141.76213    283884.99    1.1450355 
 2191000    370.70704   -1.2646746    289417.04    1.1231487 
 2192000    362.00861    3.4362636    285655.39    1.1379389 
 2193000     384.3937    9.1150891    286811.99      1.13335 
 2194000    389.33272    4.9368598    289242.96    1.1238247 
 2195000    372.38884   0.55226172    287184.42    1.1318803 
 2196000    386.22252   -3.3119662    283488.95    1.1466351 
 2197000    359.67771   -119.45973     288102.7    1.1282726 
 2198000    358.86107    2.7146469     282259.6    1.1516292 
 2199000     369.2391   -1.3112186    285089.46    1.1401978 
 2200000    372.23928    -120.6839    286507.36    1.1345551 
 2201000    369.02483    1.3483545    284719.38    1.1416799 
 2202000    384.59169    2.8206142    287604.26     1.130228 
 2203000    366.53849   -9.3276147     287238.9    1.1316656 
 2204000    376.31111    36.393831    286239.71     1.135616 
 2205000    372.22347   -8.6849548    285399.36    1.1389597 
 2206000     408.0578    3.8048267    285443.75    1.1387826 
 2207000    355.56803    4.1674377    284688.44    1.1418039 
 2208000    385.78146    42.146258     284797.1    1.1413683 
 2209000    380.79321    -26.27268    288404.96    1.1270901 
 2210000    365.16999   0.41280394    287746.18    1.1296705 
 2211000    377.81889   -1.0686934    286402.92    1.1349688 
 2212000    368.75323   -41.846716    288068.49    1.1284066 
 2213000    370.13473   0.44984567    288823.09    1.1254584 
 2214000    377.49558   -4.0904742    289205.28    1.1239711 
 2215000    359.83906   0.75565612    289122.53    1.1242928 
 2216000    368.96576    2.0897495    288952.77    1.1249533 
 2217000    376.64858    10.953427    285453.68     1.138743 
 2218000    369.66865    9.4876513    284252.17    1.1435564 
 2219000    376.71707    1.8413154    283370.42    1.1471147 
 2220000    371.05384    63.436195    283610.38    1.1461442 
 2221000    360.51896    11.526863    286938.35    1.1328509 
 2222000    376.52882    1.9358508    283766.06    1.1455153 
 2223000    370.74056   -8.4507996    288969.94    1.1248865 
 2224000    372.75435   -46.908287    290825.51    1.1177093 
 2225000    366.43753 -0.065378836    287523.71    1.1305446 
 2226000    377.62422   -3.0253559    288164.63    1.1280301 
 2227000    370.68607   -4.4723896    288717.68    1.1258693 
 2228000    358.75297   -8.8885703     287807.3    1.1294307 
 2229000    372.48746    105.77348    284452.69    1.1427502 
 2230000    391.21576    -14.68261    288519.06    1.1266444 
 2231000    373.93351   -2.4363731    288254.25    1.1276794 
 2232000    373.48836    12.391371    287199.58    1.1318205 
 2233000     347.8763    15.386969    287676.36    1.1299447 
 2234000    372.58588    5.0899551    284910.37    1.1409145 
 2235000    378.49723   -2.6990853    287619.23    1.1301691 
 2236000    359.84757   -81.291321    287892.94    1.1290947 
 2237000    382.29131    1.9462328    286077.53    1.1362598 
 2238000    375.29544   0.87737856    286572.96    1.1342954 
 2239000    367.11694    22.498265     285801.1    1.1373587 
 2240000    383.65127    3.5471544    283509.09    1.1465536 
 2241000    358.06081   -1.2772395     284256.9    1.1435373 
 2242000    378.07788   -0.9478977    282079.47    1.1523645 
 2243000    377.43786   -60.026939    287616.09    1.1301815 
 2244000    362.52003  -0.69628185    286911.19    1.1329582 
 2245000    367.05528    59.501493    282052.74    1.1524738 
 2246000    364.63433    6.5162751    285092.46    1.1401858 
 2247000    385.64642   -3.6844645     287528.3    1.1305266 
 2248000    360.83253   -2.2995762    289233.26    1.1238624 
 2249000    367.21909    3.6170891    286774.65    1.1334976 
 2250000    357.40437   -21.089368    286705.35    1.1337716 
 2251000    378.15222    1.3822326    287022.73    1.1325179 
 2252000    371.18514    32.865034    285839.77    1.1372049 
 2253000    386.30271  -0.60436161    289327.88    1.1234948 
 2254000    361.83989    41.491262    287668.24    1.1299766 
 2255000    372.83188    3.4702133    288318.86    1.1274267 
 2256000    361.96197   -5.1895269     292995.6    1.1094309 
 2257000    357.66808   -37.995718    293327.09    1.1081772 
 2258000    379.52728    1.7137169    294210.46    1.1048498 
 2259000    371.85017    12.349842    288645.08    1.1261525 
 2260000    372.60099   -32.110178     292791.6    1.1102039 
 2261000    384.96544  -0.22733603    290788.35    1.1178522 
 2262000    350.82554    3.5068098    287056.47    1.1323848 
 2263000    374.24173    80.039145     286481.1    1.1346591 
 2264000    369.85347  -0.91806631    289803.38    1.1216514 
 2265000    368.99631   -19.567616    289275.26    1.1236992 
 2266000    372.39875    3.2932647    287516.46    1.1305731 
 2267000    379.94404    0.1790496    287257.15    1.1315937 
 2268000    363.00172     3.684394    287186.16    1.1318734 
 2269000    381.68977    4.1893382    288076.78    1.1283741 
 2270000    369.35742    141.18798    282054.37    1.1524671 
 2271000    361.16267    2.2261448    287132.97    1.1320831 
 2272000    384.48627    38.713136    285313.79    1.1393013 
 2273000    365.51039  0.085858339    284450.04    1.1427609 
 2274000    385.53294    4.4557674    284115.66    1.1441058 
 2275000    358.95713    4.4899298    286475.18    1.1346825 
 2276000    376.92924    8.1267604    287241.85     1.131654 
 2277000    370.38013   -11.641276    289799.49    1.1216665 
 2278000    378.96233    1.3485578    290989.56    1.1170792 
 2279000    361.14267    20.971603    290050.08    1.1206974 
 2280000    380.59868    3.3604458    287088.13    1.1322599 
 2281000    376.14152    6.4925677    287242.84    1.1316501 
 2282000      380.429    5.2716862    286052.93    1.1363575 
 2283000    379.33215   -10.692978    285215.76    1.1396929 
 2284000    367.54192  -0.61228086    284733.51    1.1416232 
 2285000    393.78194    107.95568    282457.29    1.1508231 
 2286000    351.14253   -1.4770672    286511.68     1.134538 
 2287000    380.99424    30.998931     284407.1    1.1429334 
 2288000    370.78803   -43.414767     287280.1    1.1315033 
 2289000     393.7852   -1.5989505    284353.11    1.1431504 
 2290000    380.56985    5.4038356    287258.86     1.131587 
 2291000    375.49884    48.964077    285782.12    1.1374343 
 2292000    356.89329   -10.306898    286211.76    1.1357269 
 2293000    383.43977    3.6424064    286382.78    1.1350486 
 2294000    372.27222    7.8079057    285080.73    1.1402328 
 2295000    358.16598   -16.954545    283843.26    1.1452038 
 2296000    354.70849    3.9228023    288070.63    1.1283982 
 2297000    381.15288    11.989999    288171.47    1.1280034 
 2298000     389.8188   -5.7779381    289524.94    1.1227301 
 2299000    368.86146    2.3145597    289951.07    1.1210801 
 2300000    376.71416   -19.227852    289472.81    1.1229323 
 2301000     371.6368   0.39647751    288469.26    1.1268389 
 2302000    374.94644    2.6739348    289778.94     1.121746 
 2303000    365.85862   -135.13386     294943.5    1.1021039 
 2304000     377.5287    1.4940607    289643.74    1.1222697 
 2305000    372.19786    80.094456    284862.77    1.1411052 
 2306000    370.73157     1.321747    289605.25    1.1224188 
 2307000    373.22594    46.764073    283366.12    1.1471321 
 2308000    394.96004   -3.2383322    287442.65    1.1308634 
 2309000    370.26458   -20.497161    289406.22    1.1231907 
 2310000    392.70786    2.2751667    290176.11    1.1202107 
 2311000    375.29958    127.50726     283466.1    1.1467275 
 2312000    384.11417    0.9310337    295283.86    1.1008336 
 2313000    369.75297   -5.4283031    294966.16    1.1020192 
 2314000    376.06614 -0.098420428    289541.64    1.1226654 
 2315000    386.15149    2.2038729    287636.34    1.1301019 
 2316000    329.23958   -32.383724    290413.92    1.1192934 
 2317000    374.01018   -4.6834508       291501    1.1151193 
 2318000    378.42477   -2.5837781    291907.74    1.1135655 
 2319000    369.10548    20.664659       290246     1.119941 
 2320000    373.28585  -0.32517078    290832.53    1.1176823 
 2321000     371.6626    3.3122069    289167.45    1.1241182 
 2322000    380.19887   -12.417518    290040.93    1.1207328 
 2323000    369.86354    2.3373103    289700.07    1.1220514 
 2324000    392.15705   -47.508136    292374.86    1.1117864 
 2325000    369.45801    2.4861609    290877.42    1.1175098 
 2326000    369.11362   -100.54886    295397.12    1.1004115 
 2327000    375.60672     6.454971    290636.65    1.1184356 
 2328000    359.74835   -2.7744577    289156.33    1.1241614 
 2329000    374.99276  -0.48780202    292374.27    1.1117886 
 2330000    365.09391    -9.763724    290715.89    1.1181308 
 2331000    371.69699   -3.8960286    289397.17    1.1232258 
 2332000    383.43257    4.9548287    289997.94    1.1208989 
 2333000    353.25051   -112.09402    293043.05    1.1092513 
 2334000    374.06011   -2.3947339     285822.7    1.1372728 
 2335000    378.67789    6.6534821    287195.35    1.1318372 
 2336000    364.44185    -56.13019    288515.94    1.1266566 
 2337000    385.98736    6.9116849    283398.96    1.1469992 
 2338000    364.18886   -1.9865086    285314.24    1.1392996 
 2339000    380.69862   -30.543775    288088.96    1.1283264 
 2340000    363.04638   -27.340974    288961.85     1.124918 
 2341000    376.81678    2.6587538    286316.59     1.135311 
 2342000    370.84711    3.0614054    286240.78    1.1356117 
 2343000    393.73712   0.28374873    286596.95    1.1342004 
 2344000    375.15528   -9.9917786    287333.99    1.1312911 
 2345000     372.1018   -4.8019895    286609.93    1.1341491 
 2346000    369.47823    24.556354    282564.83    1.1503851 
 2347000    379.27928   -10.524281    284886.62    1.1410097 
 2348000    366.84487    4.4851813    283620.87    1.1461018 
 2349000    373.38374    3.9743723    282116.93    1.1522115 
 2350000    369.89514   -5.0842507    281780.55     1.153587 
 2351000    396.76023   -6.1161433       285411    1.1389133 
 2352000     367.1611   -31.259396    285900.84     1.136962 
 2353000    371.64497   -67.140073    288226.27    1.1277889 
 2354000    376.94202   -6.8728149    285011.38    1.1405102 
 2355000    370.35189    6.0989765    284717.86     1.141686 
 2356000     369.2121    8.7266652    287438.41    1.1308801 
 2357000    378.10768    3.1315143    287123.97    1.1321186 
 2358000    379.38185    5.2179914    286891.86    1.1330345 
 2359000    374.23089    5.5839061    285486.73    1.1386112 
 2360000    367.96747    -4.142687    286592.93    1.1342163 
 2361000    377.72404   -8.0483243    286665.95    1.1339274 
 2362000    364.26664   -13.321354    284676.04    1.1418537 
 2363000    389.09788   -8.3588852    288377.91    1.1271959 
 2364000    366.47312   -4.2296689    288823.79    1.1254557 
 2365000    374.65276    18.476922    285971.44    1.1366813 
 2366000    385.79355    17.278027    286928.24    1.1328908 
 2367000     394.4664    17.936076     286134.3    1.1360343 
 2368000    372.21716    23.910063    283909.24    1.1449376 
 2369000     356.8765   -1.1682383    285838.74     1.137209 
 2370000    367.93043   -86.886074    288052.72    1.1284683 
 2371000    376.33836    -116.2999     289699.1    1.1220552 
 2372000    371.79826    -40.42303     285693.8    1.1377859 
 2373000    379.57363    9.0117801    287388.06    1.1310783 
 2374000     351.5113   -4.6122238    287720.88    1.1297699 
 2375000    374.21907    4.2495853    285650.08    1.1379601 
 2376000    372.78459   -1.5963679    285465.99    1.1386939 
 2377000    374.31464    3.8233545     285309.3    1.1393193 
 2378000    371.48923    7.6224568    286181.95    1.1358452 
 2379000    361.26161   -8.6890528    285340.08    1.1391964 
 2380000    375.23613   -3.1566734    289005.54    1.1247479 
 2381000    374.05355    12.136004    289137.61    1.1242342 
 2382000    364.25218    49.360655    289345.13    1.1234279 
 2383000    371.57753   -40.566744    291034.58    1.1169064 
 2384000    390.07007    140.14953    284685.49    1.1418158 
 2385000    377.40691     -53.8222    290640.34    1.1184214 
 2386000    368.14146    80.352569    283199.83    1.1478057 
 2387000    373.13784    14.276955    285312.64    1.1393059 
 2388000    378.94425    95.090861    286156.34    1.1359468 
 2389000    350.52183   -77.889925    292895.84    1.1098088 
 2390000    379.02159    -71.22395    292462.15    1.1114545 
 2391000    353.43684    22.586076    287434.49    1.1308955 
 2392000    375.60238    69.288779    286613.68    1.1341342 
 2393000     370.5937    18.274465    287725.24    1.1297528 
 2394000    374.77944    5.5173323    288965.43     1.124904 
 2395000    375.88746    15.601967    286519.28    1.1345079 
 2396000    389.94604    11.625578    289736.11    1.1219119 
 2397000    360.91785     13.67149    290014.07    1.1208366 
 2398000    380.38747    11.231569    287808.47     1.129426 
 2399000    369.78895   -3.7535766    284425.96    1.1428576 
 2400000    373.56516  -0.27677909    285088.58    1.1402014 
 2401000    369.29076    29.111777     285448.1    1.1387653 
 2402000    390.95256    88.549848    285404.17    1.1389405 
 2403000    343.20378    94.966417    282699.34    1.1498378 
 2404000    389.95293   -19.934959    287669.22    1.1299728 
 2405000     362.8566   0.98270429    285198.56    1.1397617 
 2406000    389.85247    2.8474811    288178.95    1.1279741 
 2407000    378.35746    6.0825817    287896.37    1.1290812 
 2408000    404.15274   -6.1443035    291124.81    1.1165602 
 2409000    370.14148    14.093808    288081.88    1.1283541 
 2410000    369.74166     26.90407    285459.04    1.1387216 
 2411000    387.15361    20.665745    284129.11    1.1440517 
 2412000    362.35178    148.07478    278057.64    1.1690323 
 2413000    376.69846   -28.042987    287708.25    1.1298195 
 2414000    361.42781   -29.941429       284581     1.142235 
 2415000    386.07069    7.2887365    284912.86    1.1409046 
 2416000    374.87408   -3.9186326    285932.02     1.136838 
 2417000    371.40937   -3.5932992    287655.89    1.1300251 
 2418000    368.92697    2.6570516    283275.95    1.1474973 
 2419000    379.16569    5.5266649    282792.64    1.1494584 
 2420000     373.7526   -2.5342058     285619.4    1.1380823 
 2421000     358.6334    6.0456054    286562.23    1.1343378 
 2422000    380.20622    3.8647596    287575.25     1.130342 
 2423000    357.89443    6.2235735    286897.16    1.1330136 
 2424000    366.52845   0.36830012    287034.86      1.13247 
 2425000    371.65586   -9.6349588     287339.3    1.1312702 
 2426000    372.36749   -10.685175    290129.63    1.1203902 
 2427000    385.89806    2.0284583    291477.26    1.1152101 
 2428000    363.75909    7.5604968    288779.19    1.1256295 
 2429000    382.85371    5.0805426    285782.28    1.1374337 
 2430000    362.62016    5.0067225    287575.52    1.1303409 
 2431000     370.2993     5.752606    287517.27    1.1305699 
 2432000    381.60952    6.4419109    287815.88     1.129397 
 2433000     370.0986    1.5021854    287341.36    1.1312621 
 2434000    378.47166     10.06331    286311.24    1.1353322 
 2435000    366.32916    47.811691    283579.14    1.1462704 
 2436000    383.19543   -121.56753    293223.66     1.108568 
 2437000    370.29446   -37.485962    290015.12    1.1208325 
 2438000    381.38682   -10.593441    285606.77    1.1381326 
 2439000    361.64343    20.110431    283837.05    1.1452289 
 2440000    372.70271   -6.6282578    285611.07    1.1381155 
 2441000    378.64261   -2.4587997    287760.79    1.1296132 
 2442000    375.76916   -4.7530328    285760.29    1.1375212 
 2443000    354.72673    6.4803275    285026.95    1.1404479 
 2444000    393.84642   -47.523673    283883.71    1.1450406 
 2445000    361.51652    130.44554    276333.25    1.1763274 
 2446000    367.61541   -15.170812    283335.08    1.1472578 
 2447000    390.20188   -2.5452084     284998.6    1.1405613 
 2448000    356.17463   -4.4427324    287315.25    1.1313649 
 2449000    378.52954    3.1691101    286409.96    1.1349409 
 2450000    369.92265   -10.046982    286234.03    1.1356385 
 2451000    377.94423    101.44243    283786.89    1.1454313 
 2452000    372.01171    31.428172    286301.38    1.1353713 
 2453000    382.16847    1.6218447    286263.36    1.1355221 
 2454000    364.21643    3.9639617    285441.46    1.1387917 
 2455000    372.33608    27.848061    286552.58    1.1343761 
 2456000     383.2593    80.852751    281893.69     1.153124 
 2457000    382.49728   -36.202606    285102.08    1.1401474 
 2458000    359.85689    11.148829    283063.94    1.1483567 
 2459000    383.76837    -4.958254    283573.25    1.1462942 
 2460000    372.34182   -0.5242616    284181.54    1.1438406 
 2461000    371.42091    4.4750496    283380.48     1.147074 
 2462000    383.68899   -3.5912845    287386.42    1.1310847 
 2463000    375.78666    4.9135524     286147.3    1.1359827 
 2464000    368.16967    3.6392691    286924.09    1.1329073 
 2465000    360.62301    8.3780945    286784.52    1.1334586 
 2466000    380.72173    3.4606239    286055.31     1.136348 
 2467000    370.12284    8.6166327    284487.83    1.1426091 
 2468000    375.10658   -3.4468147    287792.59    1.1294884 
 2469000    379.58765   -7.3236212    287676.22    1.1299453 
 2470000    380.42698   -5.2078441    284368.35    1.1430892 
 2471000    383.81507   -6.3805673    287682.05    1.1299224 
 2472000    363.99261   -10.704927    288192.65    1.1279204 
 2473000    378.05776   -10.146119    284201.65    1.1437597 
 2474000     381.2569   -7.8708644    284447.47    1.1427712 
 2475000    350.50524    13.471389    282534.33    1.1505093 
 2476000    397.17277    7.0487439    281962.63    1.1528421 
 2477000    359.48684    4.1935831    280057.73    1.1606835 
 2478000    370.54047    10.486698     280492.4    1.1588848 
 2479000    395.45405    -12.08949    280014.34    1.1608633 
 2480000     366.9679   -10.457946    284644.31    1.1419809 
 2481000    373.08792    -7.822583    285129.14    1.1400392 
 2482000     366.0656   -14.380145    287356.28    1.1312033 
 2483000    388.56426   -10.301854    288454.46    1.1268967 
 2484000    363.72011     1.489868    284219.74    1.1436868 
 2485000    389.41476   -2.6992958    287644.42    1.1300702 
 2486000    367.53737    3.4591803     290200.5    1.1201165 
 2487000    387.86507   -0.8181327    290120.25    1.1204264 
 2488000    362.14769    3.8087712    289656.61    1.1222198 
 2489000     382.8601    13.245253    288201.55    1.1278856 
 2490000    369.94998     19.72098     286850.9    1.1331963 
 2491000    373.59249    21.550851    288058.07    1.1284474 
 2492000    377.71674    13.122956    288091.03    1.1283183 
 2493000     373.3695    9.7266207    286081.01    1.1362459 
 2494000    361.23067   -22.125838    286381.59    1.1350534 
 2495000    361.31165    -12.65712    284050.14    1.1443697 
 2496000    390.73046   -52.679456    285052.95    1.1403439 
 2497000    355.58073   -54.497299    286496.21    1.1345992 
 2498000    377.36744   -74.980064    287814.59     1.129402 
 2499000    391.39513    67.874503    281907.91    1.1530658 
 2500000    369.98497   -14.307543    288099.36    1.1282857 
 2501000    376.59044    109.15094    283765.63    1.1455171 
 2502000    377.88477    82.519484    283114.23    1.1481528 
 2503000    364.60426    3.6273192    287552.12    1.1304329 
 2504000    379.59303   -21.388774     285200.3    1.1397547 
 2505000    356.94149    25.043214     284726.3    1.1416521 
 2506000    371.73063    1.7155945    283667.85     1.145912 
 2507000     370.8965   -22.379206    285402.79     1.138946 
 2508000    373.33505   -17.532773    284965.53    1.1406937 
 2509000    373.30097      13.1816    286390.93    1.1350163 
 2510000    362.79571   -11.218531    287661.82    1.1300018 
 2511000     367.7701    -10.31067    287034.58    1.1324711 
 2512000    378.70992  -0.94320208    285029.78    1.1404365 
 2513000    345.78331    20.865511    283595.27    1.1462052 
 2514000    358.74929    -13.09303       283472    1.1467037 
 2515000    381.11849    19.638124    284413.46    1.1429079 
 2516000    370.65438    37.288642    283599.23    1.1461892 
 2517000    374.83603   -13.352873    288601.07    1.1263242 
 2518000    371.79098   -1.7505483     286540.9    1.1344223 
 2519000    375.63197    6.6644738    286420.58    1.1348988 
 2520000    390.22006    3.9678016    286638.87    1.1340346 
 2521000    375.48051    11.967154    283038.21    1.1484611 
 2522000    362.01655    86.430933    281226.38    1.1558602 
 2523000    378.52436    34.887073    283170.66    1.1479239 
 2524000    360.75387   -5.8783048    286125.83    1.1360679 
 2525000    386.52087   -2.0482085    285673.53    1.1378666 
 2526000    359.17663   -62.384881    287630.91    1.1301233 
 2527000    394.33926    6.1874292    282859.18     1.149188 
 2528000     365.8541    -5.425281    285338.76    1.1392016 
 2529000     368.5324    26.997502    283596.21    1.1462014 
 2530000    401.67653    9.0151704    284316.18    1.1432989 
 2531000    381.35972    -13.99319    285928.46    1.1368521 
 2532000    359.38981    41.432704     288082.2    1.1283529 
 2533000    369.53209   0.43271568    287899.95    1.1290672 
 2534000    365.07849    33.428727     286376.1    1.1350751 
 2535000    382.71535    21.523769    287455.98     1.130811 
 2536000    361.94104   -0.1766434    287474.59    1.1307378 
 2537000    373.80841   -89.882537    289909.28    1.1212417 
 2538000    355.50449   0.17269493    284275.15    1.1434639 
 2539000    393.17718   -9.8295727    284268.84    1.1434893 
 2540000    358.24887    -60.35049    283979.07    1.1446561 
 2541000    358.78937   -6.6124569    285992.48    1.1365977 
 2542000    400.12337   -4.3313489    287067.09    1.1323429 
 2543000    380.39041    77.261547    282668.37    1.1499637 
 2544000    359.02418 -0.0014755048    286775.12    1.1334957 
 2545000    385.74542   -26.348139    288576.99    1.1264182 
 2546000    366.35928   -37.455414       286257    1.1355474 
 2547000    394.21376   -3.9584996    284266.76    1.1434977 
 2548000    368.64484   -61.779278    283964.81    1.1447136 
 2549000    373.83029   -11.109026     283264.7    1.1475429 
 2550000    384.64494   0.44634099    282694.56    1.1498572 
 2551000    356.45406   -30.010088    285387.67    1.1390064 
 2552000    390.15675     3.919246    282358.78    1.1512246 
 2553000    365.84228    24.103097    279462.78    1.1631545 
 2554000    384.33719    6.8000793    282921.02    1.1489368 
 2555000    360.32397   -37.899811    285426.13    1.1388529 
 2556000    374.26463   -7.3540123     283247.6    1.1476121 
 2557000    369.31061   -13.287692    285671.53    1.1378746 
 2558000    397.80588   -29.508537    288043.09    1.1285061 
 2559000    369.37731   -7.9934669    288464.53    1.1268574 
 2560000    389.26053   -19.574385    289787.78    1.1217118 
 2561000    366.43419    1.4332441    287468.94      1.13076 
 2562000    364.73719    124.79677    280687.17    1.1580806 
 2563000    393.74816    -6.483746    285176.91    1.1398482 
 2564000    350.80017   -28.877132    286604.91    1.1341689 
 2565000    383.55346    5.7959798    285241.52      1.13959 
 2566000    360.63418   -62.490436    288276.18    1.1275936 
 2567000    364.75257    9.4459463    285238.06    1.1396038 
 2568000    374.49486   -73.511725    286720.76    1.1337107 
 2569000    362.17784    -7.018006    285053.92      1.14034 
 2570000    386.25141   -28.884066     284731.8    1.1416301 
 2571000    352.86077   -5.7341902    282655.57    1.1500158 
 2572000     385.8522     9.429632    282285.28    1.1515244 
 2573000    376.40014     -13.3485    282806.61    1.1494016 
 2574000     362.5593   -7.8459658    282396.45    1.1510711 
 2575000    359.80499    14.495139    280922.19    1.1571118 
 2576000     380.7079    3.3362342    280452.91     1.159048 
 2577000    360.04288    -101.7366    286946.39    1.1328192 
 2578000    385.40963    6.1703917    283749.32    1.1455829 
 2579000    370.55298   -8.5274803    284555.76    1.1423363 
 2580000    377.84508   -32.742619    284228.11    1.1436532 
 2581000    375.31268    8.5518048    285035.05    1.1404155 
 2582000    371.23899    74.979527    284819.29    1.1412794 
 2583000    360.47747   -19.090395    287296.34    1.1314393 
 2584000    373.02332    6.4253586    286087.77    1.1362191 
 2585000    383.52155    47.669968    283857.99    1.1451444 
 2586000      372.832   -16.403715    286855.42    1.1331784 
 2587000    369.69242    5.4556976    284295.53     1.143382 
 2588000    372.49223    92.655722    282782.32    1.1495004 
 2589000    365.73774    3.3443803    287481.92     1.130709 
 2590000    361.53333   -16.294062    287990.99    1.1287103 
 2591000    374.32034   -12.133205    287314.53    1.1313677 
 2592000    365.03633     3.580845    287485.05    1.1306966 
 2593000    379.73491    -17.61399    288081.42     1.128356 
 2594000    364.88955   -10.239812    285139.34    1.1399984 
 2595000    389.60517   -26.961125    287362.02    1.1311807 
 2596000    359.97067    27.403573    287099.91    1.1322135 
 2597000    381.96132  -0.40772157    286010.85    1.1365246 
 2598000    357.06823   -47.061812     289035.9    1.1246298 
 2599000    381.91409   -9.1793419    286046.69    1.1363823 
 2600000    358.24188   -53.146294    287640.04    1.1300874 
 2601000     368.2459    2.4009827    287045.49    1.1324281 
 2602000    379.35763   -19.944974    285762.55    1.1375122 
 2603000    355.38448    2.6994854    286230.77    1.1356514 
 2604000    389.86716   -13.099105    285611.43    1.1381141 
 2605000    378.83292     13.71622    285445.61    1.1387752 
 2606000    364.40147   -8.8401567    285762.35     1.137513 
 2607000    387.83574    2.5478523    284515.73     1.142497 
 2608000    365.23995    57.370401    282092.04    1.1523132 
 2609000    381.12172    8.4317763    283889.27    1.1450182 
 2610000    370.57152    -30.23561    286150.04    1.1359718 
 2611000    376.82867   -5.5761549    286172.66     1.135882 
 2612000    365.70614    38.201134    284003.31    1.1445584 
 2613000    381.27746   -8.5279349    286236.09    1.1356303 
 2614000      369.779   -69.449043    287409.55    1.1309937 
 2615000    358.39324    2.5537304    286520.38    1.1345035 
 2616000    393.20029    119.27776    280155.48    1.1602785 
 2617000    358.59817    8.0792678    283510.54    1.1465478 
 2618000    375.93455   -65.543199    284269.81    1.1434854 
 2619000    386.17679   -2.7534474    282924.56    1.1489225 
 2620000    347.64833   -45.046322     285198.8    1.1397607 
 2621000    387.49319    3.7260578    284479.64     1.142642 
 2622000    356.51122   -28.380843    285564.63    1.1383006 
 2623000    380.37613   -7.6369788    287190.87    1.1318548 
 2624000    361.32209    23.264674    284695.93    1.1417739 
 2625000    368.06573    9.4707744    283395.21    1.1470144 
 2626000    383.72642    60.408285    280922.68    1.1571098 
 2627000    366.46956    7.6261855    284759.26      1.14152 
 2628000    359.95609   -70.156382    289282.39    1.1236715 
 2629000    372.85254    4.1462715    287069.15    1.1323348 
 2630000    378.02223    68.663482    284728.58     1.141643 
 2631000     357.0426    15.560327    285967.47     1.136697 
 2632000    370.35868    19.233494    286946.24    1.1328198 
 2633000    374.75414    -7.455632    289623.13    1.1223495 
 2634000    369.46991   -8.9034874    286132.02    1.1360434 
 2635000    371.37776   -7.6283839    285493.15    1.1385856 
 2636000    371.24183    6.3795511    283288.51    1.1474464 
 2637000     361.8823    11.705749    285718.95    1.1376858 
 2638000    369.67298    55.232878    284107.38    1.1441392 
 2639000    386.19062    9.3715761    285051.36    1.1403502 
 2640000    375.33338    -91.32925    286413.94    1.1349252 
 2641000    386.11441   -10.383139    287722.58    1.1297632 
 2642000    364.08936   -9.6365185    288183.81    1.1279551 
 2643000    373.97626    -37.47633    289624.51    1.1223442 
 2644000     381.8266   -9.2260874    288578.11    1.1264138 
 2645000    367.67092   -81.427135    291206.07    1.1162486 
 2646000    383.13054    7.7357097    286432.75    1.1348506 
 2647000    363.86133    22.529401    284961.57    1.1407095 
 2648000    373.98014    21.155446    282873.27    1.1491308 
 2649000    380.30274   -12.154315    286624.07    1.1340931 
 2650000    380.95721    -17.02199    287281.66    1.1314972 
 2651000    363.93268   -6.4376329    285403.64    1.1389427 
 2652000    373.60557     80.88139    282531.17    1.1505222 
 2653000    375.26986   -6.3569768    286791.28    1.1334319 
 2654000    361.25092   -14.764853    283648.58    1.1459898 
 2655000    378.03313   -3.9969844    281598.23    1.1543339 
 2656000    371.04987   -19.523733    282043.02    1.1525135 
 2657000    372.51644    -9.273177    285474.16    1.1386613 
 2658000    395.53914    16.350567    285285.13    1.1394158 
 2659000     362.3435   -2.3271464    284217.73     1.143695 
 2660000    381.86033    -4.144781     283663.7    1.1459287 
 2661000    380.81779    104.24081    280470.44    1.1589756 
 2662000    369.16781    2.9494879     282292.3    1.1514958 
 2663000    381.46541   -7.0287293    283813.18    1.1453252 
 2664000    377.26705   -7.3497825    282450.68      1.15085 
 2665000      368.115   0.01117333    282468.92    1.1507758 
 2666000    391.95982    95.686786    280132.32    1.1603744 
 2667000    370.95639    7.6049574    281074.82    1.1564835 
 2668000    388.47743    -60.85004    285016.33    1.1404904 
 2669000    362.16512    13.358894    282531.81    1.1505196 
 2670000    382.28448   -21.504245    284746.27     1.141572 
 2671000    364.45693   -10.577008    285316.84    1.1392891 
 2672000    401.16259   -9.4217503    285109.62    1.1401172 
 2673000    365.51897    17.128888    285089.99    1.1401957 
 2674000    380.70785    7.2638776    286554.99    1.1343665 
 2675000    362.17079   -108.16688    292028.25     1.113106 
 2676000    365.11344    5.5436233    286565.48     1.134325 
 2677000    384.65429    96.535861     283511.4    1.1465443 
 2678000    370.63261   -3.1436368    287547.99    1.1304491 
 2679000    371.92579   -30.471108    289639.34    1.1222867 
 2680000    366.31971    5.7008127    286574.57     1.134289 
 2681000    392.09959   -9.8551833    288220.75    1.1278105 
 2682000    343.48079   -29.544661    291860.22    1.1137468 
 2683000     375.7422     10.41416    288495.59    1.1267361 
 2684000    372.99901    110.28896     283010.9     1.148572 
 2685000    370.89223    11.187066    286794.46    1.1334193 
 2686000    375.65158    10.280251    288004.15    1.1286587 
 2687000    371.67045   0.61604428    289243.74    1.1238217 
 2688000    372.92095    -4.989608    289035.17    1.1246326 
 2689000    377.22358   -5.8553082    290237.94    1.1199721 
 2690000    364.44527    14.040586    288080.41    1.1283599 
 2691000    394.82152     6.823357    291791.33    1.1140097 
 2692000    342.79946   -26.531818    292778.72    1.1102528 
 2693000    378.69163    9.6490221     288741.2    1.1257776 
 2694000    368.54097    32.707008    291593.42    1.1147658 
 2695000    374.76871   -3.1201793    289582.37    1.1225075 
 2696000    382.99389    2.7410871    288539.64     1.126564 
 2697000    369.05822    29.822413    287118.43    1.1321404 
 2698000    396.73114   -2.1194949    286829.44    1.1332811 
 2699000    351.49149   -26.466112    285529.32    1.1384413 
 2700000    378.86644   -1.4186258    284002.92      1.14456 
 2701000    363.61357   -50.816296    288761.09    1.1257001 
 2702000    380.94214     -7.06974    286858.88    1.1331648 
 2703000    359.19417    120.29027    282212.77    1.1518202 
 2704000    386.01752    6.1409026    287699.08    1.1298555 
 2705000    370.51978    88.322461    287335.19    1.1312864 
 2706000     378.0807     8.894252    292993.59    1.1094386 
 2707000    381.65839    43.097731    289547.97    1.1226408 
 2708000    364.66641   -1.2940448    289561.96    1.1225866 
 2709000    376.22711    13.080704    287517.15    1.1305704 
 2710000    368.61484   -11.989748    285443.95    1.1387818 
 2711000    371.46368    19.818998    285751.69    1.1375554 
 2712000     396.3161   -13.887412    288246.39    1.1277101 
 2713000    360.31099   -10.681208    290749.71    1.1180007 
 2714000    377.89365    11.006935    287179.39    1.1319001 
 2715000    369.73062    18.792276    287621.47    1.1301604 
 2716000    394.07466    22.544035    285463.98    1.1387019 
 2717000    371.01052   -15.683617    285886.09    1.1370206 
 2718000     377.9649    26.812661    281250.19    1.1557623 
 2719000    368.18398    16.855692     282309.8    1.1514244 
 2720000    366.23252    40.482745    284872.41    1.1410666 
 2721000    373.74301    7.0696554    286118.01     1.136099 
 2722000    362.07891   -65.634631    289845.32    1.1214892 
 2723000    375.26288    2.3417314    287562.69    1.1303914 
 2724000    370.33618    18.045874    287854.28    1.1292463 
 2725000    381.30423   -62.557821    290751.94    1.1179921 
 2726000    365.80136    1.7522839    287126.54    1.1321084 
 2727000    384.29281    3.8257054    284727.69    1.1416465 
 2728000    356.97234   -26.161223    285585.56    1.1382171 
 2729000    374.89583    6.1954866    285544.33    1.1383815 
 2730000    380.66842   -20.277289    287159.07    1.1319802 
 2731000    370.69908   -12.080526    288558.64    1.1264899 
 2732000    392.45814   -9.8688916    287154.23    1.1319993 
 2733000    368.71163    36.199309    284084.74    1.1442304 
 2734000    377.90091    8.6499046    287881.88     1.129138 
 2735000    379.75229    63.266361    289317.25    1.1235361 
 2736000    349.73954    9.7128347    290337.99    1.1195861 
 2737000    375.49861    20.730716    288274.89    1.1275987 
 2738000    364.57065    10.878455    287069.89    1.1323319 
 2739000    367.81219   -7.9789008    287474.73    1.1307372 
 2740000    378.06497    111.34964     282513.1    1.1505958 
 2741000    358.35507    8.3303766    287089.46    1.1322547 
 2742000    379.72482    65.646363    287062.66    1.1323604 
 2743000    354.71142   0.91229994    287123.18    1.1321217 
 2744000    379.17911    9.3513746    287302.19    1.1314163 
 2745000    376.68341   -4.3163651    290386.77     1.119398 
 2746000    360.16633    2.4623111     286881.3    1.1330762 
 2747000    378.63838   -12.120013    287643.36    1.1300744 
 2748000    385.02251   -10.669272    288832.13    1.1254232 
 2749000    361.39944    115.66419    285468.52    1.1386838 
 2750000    372.81889   -5.3042578     290279.7    1.1198109 
 2751000    384.77474   -59.011464     292769.6    1.1102873 
 2752000    369.46947    10.151649    288408.96    1.1270745 
 2753000    373.82217   -11.422669    289876.39    1.1213689 
 2754000    370.82169   -3.1885914    290891.63    1.1174553 
 2755000    379.81939   -9.1209126    291571.84    1.1148483 
 2756000    352.29168    23.851386    289680.06     1.122129 
 2757000    382.84099    1.8412143    290546.14     1.118784 
 2758000    369.61703    7.1772942    286075.25    1.1362688 
 2759000    384.33332    10.257436    285924.99    1.1368659 
 2760000    376.44789    2.3742257    287553.52    1.1304274 
 2761000    370.73508    7.9839575     287222.1    1.1317318 
 2762000    395.02667    70.157835    283095.78    1.1482276 
 2763000    341.71646    5.3389003    284829.75    1.1412375 
 2764000    376.95792    6.7927647    284478.54    1.1426464 
 2765000    364.93781    8.8530087    286646.09     1.134006 
 2766000    362.08038   -36.808112    288361.43    1.1272603 
 2767000    383.95508    1.7122823     285963.7     1.136712 
 2768000    372.62695  -0.34319152    284249.16    1.1435685 
 2769000    372.64656    4.7151903     284746.4    1.1415715 
 2770000    352.48129   -114.50109    287946.79    1.1288835 
 2771000    359.13959   -1.1963573    281034.07    1.1566512 
 2772000    374.04031   -91.374503     288374.1    1.1272107 
 2773000    375.35314    8.7548979    286468.38    1.1347095 
 2774000    362.25681   -96.227233     292145.8    1.1126581 
 2775000    381.25103   -5.7410409    291982.99    1.1132785 
 2776000     361.3353   -52.009949    292565.04    1.1110636 
 2777000    390.15796    11.070336    289564.85    1.1225754 
 2778000    358.86474    38.464832    290159.96     1.120273 
 2779000    390.83522   -7.4280286    286641.68    1.1340234 
 2780000    345.45501    25.961495    283332.71    1.1472674 
 2781000    376.42038   -17.323802    285495.89    1.1385746 
 2782000    386.53055   -11.599914    285892.89    1.1369936 
 2783000    379.81077   -17.296475    286388.81    1.1350247 
 2784000    373.35336    9.3600899    284630.13    1.1420379 
 2785000    382.64255   -9.6745816    285715.35    1.1377001 
 2786000    360.68097   -7.2646753    284927.24     1.140847 
 2787000    381.91455    20.297559    285048.32    1.1403624 
 2788000    396.82553    1.6866965     285575.1    1.1382588 
 2789000     367.0706     6.560958    284771.35    1.1414715 
 2790000    382.56017    5.2092434    285662.27    1.1379115 
 2791000    364.20341    1.4450554    287051.88    1.1324029 
 2792000    380.99218   -12.190848    287723.95    1.1297578 
 2793000    364.15896   -11.214242    288447.06    1.1269256 
 2794000    382.73172    1.3793336    286912.62    1.1329525 
 2795000    362.18689    121.88263    282090.33    1.1523202 
 2796000    395.79006   -0.3357819     288421.6    1.1270251 
 2797000    370.40733   -37.587559    288145.44    1.1281052 
 2798000    377.24593   -16.039308    287882.07    1.1291373 
 2799000    381.57525    1.1776494    285130.49    1.1400338 
 2800000     371.4294    81.655205    282470.62    1.1507688 
 2801000    367.25312    -6.547462    286686.11    1.1338477 
 2802000    378.17834     9.177469    285821.68    1.1372768 
 2803000    342.74776    102.04056    280689.83    1.1580697 
 2804000     387.8179   -6.6836251    285245.11    1.1395756 
 2805000    372.51752    6.1128509    283911.84    1.1449272 
 2806000    361.97201    66.132457    281479.79    1.1548196 
 2807000    381.22872   -11.975532     285783.7     1.137428 
 2808000    369.70401    4.2234001    284355.08    1.1431425 
 2809000    380.55344    117.40743     279988.6    1.1609701 
 2810000    369.23267    2.2323258    287923.32    1.1289755 
 2811000    393.59525   -12.024602    289540.21    1.1226709 
 2812000    356.13636   -73.382011    291756.31    1.1141435 
 2813000    387.97624   -6.8302714    289885.65    1.1213331 
 2814000    346.66215   -2.3687747     288502.5    1.1267091 
 2815000    381.21191    40.610904    285409.74    1.1389183 
 2816000    360.71883   -5.8806408    285324.75    1.1392576 
 2817000    380.86937    41.336648    282814.71    1.1493687 
 2818000    346.57594    6.3375066    284864.94    1.1410965 
 2819000    392.71902    5.6067169    288643.97    1.1261569 
 2820000    362.19732   -14.964236    288609.37    1.1262918 
 2821000    391.24881    5.1906937    289240.66    1.1238336 
 2822000    358.16912   -26.930612    286167.54    1.1359023 
 2823000    392.36938    17.113069     284916.8    1.1408888 
 2824000    359.57181   -19.008997    286005.67    1.1365452 
 2825000    388.38456    16.244287    282932.36    1.1488908 
 2826000    363.54984    5.1815764    284829.64    1.1412379 
 2827000     368.2037   -11.154016    289647.28    1.1222559 
 2828000     374.3044   -15.285185    292550.42    1.1111192 
 2829000    378.61919   -6.2446842    289125.51    1.1242812 
 2830000    377.57022   -10.892736    288122.94    1.1281933 
 2831000    348.49732    1.3680269    289419.95    1.1231374 
 2832000     383.6529    16.197704    285177.97     1.139844 
 2833000    369.29272   -3.7529182    285915.73    1.1369027 
 2834000    388.20547    15.992849    285185.75    1.1398128 
 2835000    352.41606    13.683628    283661.66     1.145937 
 2836000    370.84748    22.903005    280679.22    1.1581135 
 2837000    367.35937    5.4051187    282451.64    1.1508462 
 2838000     375.9441   -105.01508    287914.48    1.1290102 
 2839000    367.41695   -2.5455491    287424.08    1.1309365 
 2840000    381.23273    37.523343    286643.27    1.1340171 
 2841000    363.63825   0.54127549    287722.95    1.1297617 
 2842000    382.10344   -66.993781    287512.52    1.1305886 
 2843000    366.88063    10.357989    281842.32    1.1533342 
 2844000    360.59961   -28.438365    283923.94    1.1448784 
 2845000     381.9184    11.138018    285395.65    1.1389745 
 2846000    361.14281    40.871338    281270.25    1.1556799 
 2847000     387.0291    12.780864    281426.12    1.1550398 
 2848000    367.95671    45.508074     279481.5    1.1630766 
 2849000    387.18429    11.685392    281310.48    1.1555146 
 2850000    337.38066   -22.313654    281953.45    1.1528796 
 2851000    380.71687   -7.5920857    285178.37    1.1398423 
 2852000    364.57272   -3.6332219    281164.69    1.1561138 
 2853000    379.99985    42.897077    281053.46    1.1565714 
 2854000    371.15651    5.4447284     285217.4    1.1396864 
 2855000    371.59866   -59.765188    288025.29    1.1285758 
 2856000    349.46874    14.362479    285434.98    1.1388176 
 2857000    377.44118   -5.0039548    285074.32    1.1402584 
 2858000    383.01919    100.60147    281751.32    1.1537067 
 2859000    382.33179   -16.700821    286054.35    1.1363518 
 2860000    366.00391      6.73608    286888.67    1.1330471 
 2861000    380.39761    33.125222    287641.14    1.1300831 
 2862000      377.906    23.474851    289508.97    1.1227921 
 2863000    364.45347    7.8391073    285173.43    1.1398621 
 2864000    391.48262   -10.912187    285717.44    1.1376918 
 2865000    360.39012     74.89923    281278.65    1.1556454 
 2866000    367.86107    5.1869098     286475.8    1.1346801 
 2867000     359.5286   -8.9111458    289773.23    1.1217681 
 2868000    373.00241   -5.1453844    288861.72    1.1253079 
 2869000     356.0793    54.598829    283942.88     1.144802 
 2870000    371.09488   0.23494722    285778.23    1.1374498 
 2871000    377.43708   -1.7597874    286846.38    1.1332141 
 2872000    362.09433   -66.187086    286160.86    1.1359289 
 2873000     381.6591   -10.497154    281893.94     1.153123 
 2874000    384.97571     5.054012    283394.75    1.1470162 
 2875000    363.76686   -17.082256    287124.25    1.1321175 
 2876000    377.90119    70.134593    283170.82    1.1479233 
 2877000    367.61519   -2.8179896    286397.34    1.1349909 
 2878000    377.00348   -10.822641     289178.1    1.1240768 
 2879000    365.61469   -35.603759    287576.38    1.1303375 
 2880000    365.75377    5.3463537    285964.78    1.1367077 
 2881000    383.90612    67.562266    280792.28    1.1576472 
 2882000    366.65394   -12.027042    282957.43     1.148789 
 2883000    380.13408    6.4184446    284368.59    1.1430882 
 2884000    371.43138    102.43425    280090.95    1.1605458 
 2885000    386.46935    -4.648912    285230.42    1.1396343 
 2886000    371.58696   -24.479714    285737.11    1.1376135 
 2887000    376.97712    2.7232712     280720.9    1.1579415 
 2888000    369.52042    17.757141    283637.16     1.146036 
 2889000    385.62487   -38.569135    286749.15    1.1335984 
 2890000    375.61347    2.5508048     286235.6    1.1356322 
 2891000    367.36375    -52.11143     287398.6    1.1310367 
 2892000    382.00075   -9.6988983    288495.87     1.126735 
 2893000    360.13886    15.462811    285119.23    1.1400788 
 2894000    379.70996   -19.269388    287281.97    1.1314959 
 2895000    365.57816    -5.144401    290084.77    1.1205634 
 2896000     391.7425    110.15946    287118.18    1.1321414 
 2897000    355.76937   -6.1067359    292988.84    1.1094565 
 2898000    378.60509    -32.60129    293544.27    1.1073573 
 2899000    387.62517    19.415832    288598.63    1.1263338 
 2900000    360.80927    6.5028757    287702.39    1.1298425 
 2901000    368.44746   -89.362356    292984.27    1.1094738 
 2902000    370.55697    1.4216239    287549.33    1.1304439 
 2903000    392.27128   -10.484834    288051.61    1.1284727 
 2904000    373.04102   -51.573877    293663.61    1.1069073 
 2905000    369.08331    1.8107456     290813.4    1.1177559 
 2906000    388.92312   -34.787343     291549.2    1.1149349 
 2907000    371.60328   -8.8302605    288841.17     1.125388 
 2908000    371.19112     -10.5356    290199.04    1.1201222 
 2909000     367.0835   -73.192102    291716.08    1.1142971 
 2910000    399.14755   -2.9416792    287457.59    1.1308047 
 2911000    367.09337   -5.3629343    288741.04    1.1257782 
 2912000    369.10449   -11.537804    287693.75    1.1298764 
 2913000    383.20518  -0.97492451    290176.79    1.1202081 
 2914000    377.30702   -26.453985    292171.52    1.1125601 
 2915000     368.7275    7.2088955    289128.01    1.1242715 
 2916000    359.49813      12.1626    288790.49    1.1255855 
 2917000    361.09682   -48.948321    291207.45    1.1162434 
 2918000    367.25428   -5.5004212    288333.94    1.1273677 
 2919000    392.80592     15.24883    285173.94    1.1398601 
 2920000    355.74182   -43.363079    285440.85    1.1387942 
 2921000    391.58567   -5.2419223    283903.34    1.1449614 
 2922000    366.05142   -12.452139    285136.48    1.1400098 
 2923000    384.41124    31.437976    284290.44    1.1434024 
 2924000    358.95893   -6.1430201    287254.26    1.1316051 
 2925000    374.28736    45.543926    284835.01    1.1412164 
 2926000     378.5155   -17.213295    289202.36    1.1239825 
 2927000    374.80833   -7.4900225    289501.84    1.1228197 
 2928000    381.09827   -38.574119    289415.11    1.1231562 
 2929000    388.05455   -4.3424748    289320.56    1.1235233 
 2930000    360.25133     7.365089    289217.32    1.1239243 
 2931000    370.72449   -106.09204    293916.34    1.1059554 
 2932000    372.77717    14.638189    289734.28    1.1219189 
 2933000    384.98461    3.0296328    288653.45    1.1261199 
 2934000    363.10416   -14.871947    288150.08    1.1280871 
 2935000    384.00522   -7.1309082    288933.93    1.1250267 
 2936000    372.06648   -6.9910343    286536.17     1.134441 
 2937000    363.17882   -21.171147     286204.1    1.1357572 
 2938000    377.10462    2.1911002    285938.31     1.136813 
 2939000    368.95245    2.7562564    287776.68    1.1295508 
 2940000    357.38145    6.4464841    287064.91    1.1323515 
 2941000    382.75196    6.6480171    288107.96     1.128252 
 2942000    385.38692    123.97118    283148.66    1.1480131 
 2943000    365.89804    11.162827    287482.07    1.1307084 
 2944000    380.08915   -3.8899269    287362.18    1.1311801 
 2945000    370.69965    -5.246861     288384.1    1.1271717 
 2946000    369.02041   -26.628332    288406.36    1.1270846 
 2947000    376.37544   -3.1952204    287103.28    1.1322002 
 2948000    353.27944   -7.4170458    284986.26    1.1406107 
 2949000    372.01737   -36.512335       287850    1.1292631 
 2950000    372.42653   -7.5692927    288543.03    1.1265508 
 2951000    385.23704    1.3371009    289540.01    1.1226717 
 2952000    379.61979    52.886017    287286.81    1.1314769 
 2953000    384.19931   -6.9862098    286139.09    1.1360153 
 2954000     351.5801  -0.92479422    284771.06    1.1414727 
 2955000    392.49526   -11.047224    286858.53    1.1331662 
 2956000     362.6273    5.3543665    285937.54     1.136816 
 2957000    370.74479    11.728813    287098.28    1.1322199 
 2958000    379.24062    4.5434298    287917.96    1.1289966 
 2959000     385.0928   -67.355061    290671.78    1.1183004 
 2960000    363.01136    8.8307032    286911.11    1.1329585 
 2961000    382.08809  -0.18535947    285005.13    1.1405352 
 2962000    347.55099    3.4808553    286009.23    1.1365311 
 2963000     361.3321    5.4135676    288610.92    1.1262858 
 2964000    396.86647    70.498685    283314.12    1.1473427 
 2965000    366.24909   -6.7759548    287668.45    1.1299758 
 2966000    377.97074     21.89034    286206.27    1.1357486 
 2967000    385.30684   -7.1359871    284772.26    1.1414679 
 2968000    375.02408   0.58643036    283730.74     1.145658 
 2969000    388.17414    8.1956286    284063.58    1.1443156 
 2970000    371.16637    10.630048    287715.74    1.1297901 
 2971000    382.84134   -35.771945    288853.39    1.1253404 
 2972000    359.94046   -6.2684844    288376.46    1.1272015 
 2973000    374.94808   -95.440974    294111.51    1.1052215 
 2974000    363.43064    9.6972536    288361.31    1.1272607 
 2975000    360.52457    20.286107    288071.03    1.1283966 
 2976000    389.43923    38.982282    288121.66    1.1281983 
 2977000    361.52577  -0.99827073    292091.64    1.1128644 
 2978000    353.96179    3.5482212    293194.84     1.108677 
 2979000    380.20732   -8.0682519    295431.06    1.1002851 
 2980000    360.96773    2.8450886    294052.55    1.1054432 
 2981000    385.01622    41.706131    291717.89    1.1142902 
 2982000    368.81587    9.5384758    293685.36    1.1068253 
 2983000    373.42391     5.117383    291533.83    1.1149937 
 2984000     363.7788  -0.66161369    288653.08    1.1261213 
 2985000    370.65512   -20.915522    289504.16    1.1228107 
 2986000    376.28208    4.9933732    286610.29    1.1341476 
 2987000    366.26441   -3.9582536    286371.41    1.1350937 
 2988000    391.03493    11.736406    288232.69    1.1277638 
 2989000    355.41842   -20.958987    289517.71    1.1227582 
 2990000    383.83588    12.457659       286910    1.1329629 
 2991000     367.4801    6.5939493    284805.75    1.1413336 
 2992000    369.45083    7.5934001    283365.18    1.1471359 
 2993000    383.04632     10.35992    282881.62    1.1490969 
 2994000    372.11865     10.86541     283959.4    1.1447354 
 2995000    364.50199    26.005657    281434.01    1.1550075 
 2996000    374.00195   -10.457903    283599.38    1.1461886 
 2997000    366.99798   -31.246645    284311.29    1.1433186 
 2998000     370.3525    10.587626    281273.76    1.1556655 
 2999000      379.061    14.810357    282881.75    1.1490963 
 3000000    369.47122  -0.71391905    284833.85    1.1412211 
 3001000     372.2937   -109.34418     288472.2    1.1268274 
 3002000    373.25553   -5.0649304    282562.89     1.150393 
 3003000    352.75847    41.289833     280936.1    1.1570545 
 3004000    400.62139    17.337965    286029.47    1.1364507 
 3005000    367.39112   -12.091349    290326.85    1.1196291 
 3006000    390.31325   -16.612447    287848.35    1.1292695 
 3007000    385.84627   -4.6965512    287623.55    1.1301522 
 3008000    352.33871     17.52768    285292.46    1.1393865 
 3009000    390.00706    8.8266127    290919.14    1.1173496 
 3010000    369.14345    42.989535    286836.64    1.1332527 
 3011000    367.36576    18.341584    287912.95    1.1290162 
 3012000    400.66557    7.9431467    287677.36    1.1299408 
 3013000    388.26482    84.479287    284115.89    1.1441049 
 3014000    369.55992    11.342099    285846.61    1.1371777 
 3015000    366.34176   -29.279498    286995.48    1.1326254 
 3016000      377.381   -6.9539764    286903.46    1.1329887 
 3017000    370.58751    18.912128    288328.28    1.1273899 
 3018000    374.52984   -14.925202    290134.04    1.1203731 
 3019000     348.9235    11.858783    290607.07    1.1185495 
 3020000    374.51176    80.138616    287282.84    1.1314925 
 3021000    384.90879   -7.9432265    288855.13    1.1253336 
 3022000    373.99481    64.215845    285983.32     1.136634 
 3023000    366.41657     4.715154     288243.3    1.1277223 
 3024000    381.78604   -22.243389    289149.04    1.1241897 
 3025000    368.44677    -27.92337    287087.03    1.1322642 
 3026000    373.27274   -8.3431417    286342.58     1.135208 
 3027000    369.49598    20.649034    284435.01    1.1428213 
 3028000    380.02892   -21.806552    284813.92    1.1413009 
 3029000    368.62972   0.19369684    282025.02     1.152587 
 3030000     382.9697    10.086786    281122.92    1.1562856 
 3031000    370.84371   0.49214354    282040.61    1.1525233 
 3032000     375.3488   -53.112645    285260.14    1.1395156 
 3033000    355.01508  -0.95609165    282862.98    1.1491726 
 3034000    400.80054   -10.991986    286082.12    1.1362415 
 3035000    368.51474    7.6019825    288006.24    1.1286505 
 3036000    374.74889    104.96099    282411.65    1.1510091 
 3037000    363.95145    6.9685692    286834.38    1.1332616 
 3038000    382.77891    61.389313    284679.11    1.1418413 
 3039000    371.55452    2.4846897     284098.7    1.1441741 
 3040000    361.24044   -77.779991    287954.94    1.1288516 
 3041000    380.14795   -7.9101274    288105.48    1.1282617 
 3042000    356.84031   -81.436534     288564.1    1.1264685 
 3043000    361.41502    1.2381669    286666.57     1.133925 
 3044000    364.06477    63.579799    284590.33    1.1421976 
 3045000    392.89477   -3.2845512    287556.03    1.1304176 
 3046000     370.7858    36.289374     284818.9    1.1412809 
 3047000    369.46825    9.1182229    289814.93    1.1216068 
 3048000    358.64499  -0.12078721    290506.86    1.1189353 
 3049000    388.68757   -6.8681677    291574.32    1.1148389 
 3050000    353.33289    1.6096913    285179.66    1.1398372 
 3051000    382.69868   -1.9148886     286412.9    1.1349293 
 3052000    366.83217     1.146671    286861.69    1.1331537 
 3053000    379.62312     66.27725    281942.65    1.1529237 
 3054000    380.73966    -6.436026    285351.36    1.1391513 
 3055000    362.19272    25.227553    284587.05    1.1422107 
 3056000    375.71584    9.4933866    283280.21      1.14748 
 3057000     373.2552    110.16392    279456.99    1.1631786 
 3058000    388.85051    1.6983327    281796.89    1.1535201 
 3059000    354.58691   -66.095856    285580.92    1.1382356 
 3060000    388.00157   -1.4439503    283458.36    1.1467588 
 3061000    366.75461    26.983958    282999.29    1.1486191 
 3062000    374.28643   -27.073606     286131.7    1.1360446 
 3063000     368.1434   -7.9054173    286228.47    1.1356605 
 3064000    394.12946    111.86333    281517.61    1.1546645 
 3065000    352.23235   -3.3443878    284952.49    1.1407459 
 3066000    406.62189    51.900637     283781.1    1.1454547 
 3067000     379.2162    -3.104789    286726.58    1.1336876 
 3068000    383.74956     -13.0204    285939.22    1.1368094 
 3069000    354.59294    22.046333    285096.78    1.1401686 
 3070000    379.97966    12.026359    287941.17    1.1289055 
 3071000    356.21394    86.479515    282815.24    1.1493666 
 3072000    381.73861   -8.3441409    287323.96    1.1313306 
 3073000    369.65302   -11.340705    286221.91    1.1356866 
 3074000      385.424   -15.746498    285847.13    1.1371756 
 3075000    362.31899    16.197028    284785.17    1.1414161 
 3076000    372.32848   -62.665631    289151.52    1.1241801 
 3077000    388.03918     10.83588    284269.89    1.1434851 
 3078000    371.79243    24.425695    285825.66     1.137261 
 3079000    381.38239   -14.494945    284953.03    1.1407437 
 3080000    364.47672   -16.243962    285505.67    1.1385356 
 3081000    387.79499    23.014144    287029.05     1.132493 
 3082000    382.94237    11.187375    286271.34    1.1354905 
 3083000     376.7384     27.62164    282307.74    1.1514328 
 3084000    393.22012    4.3076362     284953.7     1.140741 
 3085000    359.93277    5.2713294    285137.27    1.1400066 
 3086000    378.81567   -10.603684    286229.39    1.1356569 
 3087000     367.5814    33.450133    283492.44     1.146621 
 3088000    385.04593     18.19787     283928.7    1.1448592 
 3089000    383.84331   -14.193294    288351.61    1.1272987 
 3090000    373.13155   -14.687026    288794.68    1.1255691 
 3091000    393.33398   -6.2149544    288800.58    1.1255462 
 3092000    356.42844    38.111159    286370.81    1.1350961 
 3093000    387.20384    10.281614    287881.31    1.1291403 
 3094000    369.93387    49.053552    284079.96    1.1442496 
 3095000    354.89791   -10.843438    285214.11    1.1396995 
 3096000    383.16231    19.479082    285436.04    1.1388134 
 3097000    352.16267   -49.368664    289591.13    1.1224736 
 3098000    377.00095    15.882832    287820.71     1.129378 
 3099000    355.36267    12.205832    287571.62    1.1303562 
 3100000    383.15262    120.72398    284377.28    1.1430533 
 3101000    362.68533    7.3479184    286034.59    1.1364303 
 3102000    389.45987   -8.8322072    288914.99    1.1251004 
 3103000      367.762    105.36052    285102.58    1.1401454 
 3104000     383.5137    9.6341878     288023.1    1.1285844 
 3105000    362.99414   -14.263078    288720.27    1.1258592 
 3106000    378.35383   -102.56186    293570.27    1.1072592 
 3107000    369.59663   -12.416169    288449.51     1.126916 
 3108000    361.99527   0.92635956    287586.56    1.1302975 
 3109000    387.79523    22.062193     285244.9    1.1395765 
 3110000    383.98364     95.43331    280174.63    1.1601992 
 3111000    376.48717    16.599247    286024.21    1.1364716 
 3112000     376.4645   -4.4304084    286709.54     1.133755 
 3113000    376.23642    8.8286808     288406.4    1.1270845 
 3114000    376.53038    27.555523    286733.87    1.1336588 
 3115000    372.64015   -3.1572495    287263.81    1.1315675 
 3116000    364.28669    7.3066193    284071.14    1.1442851 
 3117000    379.04567   -34.384342    284618.03    1.1420864 
 3118000    373.88754    32.938441    281815.12    1.1534455 
 3119000    373.37442    10.154259    282139.95    1.1521175 
 3120000    381.72487    15.818251    282409.51    1.1510178 
 3121000    374.08988    52.585934    281862.42    1.1532519 
 3122000    392.54527   -22.330158    288061.94    1.1284323 
 3123000    366.80265    7.4562724    284824.66    1.1412578 
 3124000    401.35935   0.72640132    283002.24    1.1486071 
 3125000    377.59986   -34.658265    283190.82    1.1478422 
 3126000    363.87912     26.13186     281399.9    1.1551475 
 3127000    380.20471    1.8267643    281638.15    1.1541703 
 3128000    358.65991   -53.152392    284349.47    1.1431651 
 3129000    387.82235    24.211983       284874    1.1410602 
 3130000    366.20433   -3.7876152    285252.19    1.1395474 
 3131000    379.14631    60.187394     281961.3    1.1528475 
 3132000    374.42014     46.55786    280639.11     1.158279 
 3133000    368.26584    12.260315    283001.16    1.1486115 
 3134000    367.53832   -9.9459442    284045.55    1.1443882 
 3135000    377.77505   -108.76344    287867.49    1.1291945 
 3136000    382.66626   -10.137751    281861.98    1.1532537 
 3137000    374.43033    9.9417388    283688.44    1.1458288 
 3138000    370.57072   -48.404461    287601.98    1.1302369 
 3139000    382.69693   -40.732251    283682.85    1.1458514 
 3140000    372.69038     1.894114    282826.51    1.1493208 
 3141000    390.46991   -6.6592279    283010.18    1.1485749 
 3142000    363.86572   -39.094673    284662.05    1.1419098 
 3143000    389.09292    104.11973    282443.25    1.1508803 
 3144000     368.4772   -22.284811    286097.16    1.1361818 
 3145000    353.78925    12.826094    284969.86    1.1406764 
 3146000    377.19333     19.71106    281591.02    1.1543634 
 3147000    374.33694   -87.557081    288410.16    1.1270698 
 3148000    362.42578    -17.40189    281796.57    1.1535214 
 3149000    385.65897    8.8409617     283687.7    1.1458318 
 3150000     361.2572   -7.5022344     286653.1    1.1339783 
 3151000    357.71211   -57.008899    288671.93    1.1260478 
 3152000    387.59531    15.357443    283704.78    1.1457628 
 3153000    343.92928    8.0831296    284352.52    1.1431528 
 3154000    378.36329   -23.965267    287307.31    1.1313961 
 3155000    384.28789   -21.443097    283995.05    1.1445917 
 3156000    382.59916   -3.5607573    286084.22    1.1362332 
 3157000    349.56451    20.817941    285068.36    1.1402822 
 3158000    376.60053   -43.246501    287836.76    1.1293151 
 3159000    368.63146   -4.4323651    286495.32    1.1346028 
 3160000    382.90242   -12.958627     288458.8    1.1268798 
 3161000     376.2185     8.925584     286315.5    1.1353153 
 3162000    387.63235    26.029998    285470.24     1.138677 
 3163000    372.44374   -4.5042402    285221.63    1.1396694 
 3164000    360.44825   -23.608776    285465.02    1.1386978 
 3165000    378.02294    -27.97785    284443.98    1.1427852 
 3166000     369.1246    8.6594316    285667.11    1.1378922 
 3167000    379.57795   -28.469396    287223.58     1.131726 
 3168000    372.21104   -32.161754    284803.63    1.1413421 
 3169000    370.66601    -9.558106    284381.18    1.1430376 
 3170000    350.06148    4.3726941    284049.28    1.1443732 
 3171000    368.72504    25.485759    284799.99    1.1413567 
 3172000    378.95631   0.35273586    288800.13    1.1255479 
 3173000    364.57864   -18.349687     287283.2    1.1314911 
 3174000    385.44339   -14.989429    288465.02    1.1268554 
 3175000    362.02615   -5.8332306    288186.73    1.1279436 
 3176000    390.49751    20.570824    286140.41    1.1360101 
 3177000    369.56164    11.953678    286434.64    1.1348431 
 3178000    385.01848   -6.1115307    286699.38    1.1337952 
 3179000    355.55477   -52.411851    288875.07    1.1252559 
 3180000    383.46747   -2.9382913    287102.42    1.1322036 
 3181000     380.9826    32.650326    283725.59    1.1456788 
 3182000    378.62449    22.343929     283208.8    1.1477694 
 3183000    380.77826    -4.568917    284574.15    1.1422625 
 3184000    367.78486   -19.084142    285541.88    1.1383913 
 3185000    377.96541   -48.274766    288736.87    1.1257945 
 3186000    367.91673    11.012699    283112.61    1.1481593 
 3187000    361.85297   -26.972203    285429.32    1.1388402 
 3188000    375.66237   -29.956206    285400.03    1.1389571 
 3189000    374.47251    11.609678    283276.48    1.1474951 
 3190000     368.5092    29.243279       282662    1.1499897 
 3191000     379.1276    44.990208    283366.04    1.1471325 
 3192000    361.11406   -5.2434529    284798.43     1.141363 
 3193000    378.08355     28.61437    284141.52    1.1440017 
 3194000    354.66929   -74.472783    287547.29    1.1304519 
 3195000    385.99666   -8.8830249    284552.53    1.1423493 
 3196000    359.54469    5.3691498    284138.84    1.1440125 
 3197000    366.82077    52.444031    283361.66    1.1471502 
 3198000    378.56926   -7.9157316    283200.95    1.1478012 
 3199000    364.59192   -11.870207    284160.87    1.1439238 
 3200000     367.1681    13.847457    285567.65    1.1382885 
 3201000    376.65034   -34.380977    289950.74    1.1210814 
 3202000    370.85631   -8.8729741    289669.69    1.1221691 
 3203000    397.50302   -9.6873531    292050.14    1.1130225 
 3204000     354.7828   -91.880201    297518.15    1.0925666 
 3205000    384.86126    -12.93854    292296.82    1.1120832 
 3206000    375.99575   -10.244468    288724.69     1.125842 
 3207000    382.07018   -17.927138    286723.25    1.1337008 
 3208000    371.07271   -1.0448246    284971.74    1.1406688 
 3209000    386.92548   -8.7369785    286936.39    1.1328587 
 3210000    357.10537    15.102976     284205.1    1.1437458 
 3211000    376.82901    66.698682    280443.77    1.1590857 
 3212000    381.17198    36.389963    283490.91    1.1466272 
 3213000     362.9439  -0.84848871    286434.84    1.1348423 
 3214000    382.29141   -15.640722    286940.44    1.1328427 
 3215000    360.43458   -84.014827    292238.86    1.1123038 
 3216000    372.81008   -3.1846236    287126.84    1.1321073 
 3217000    373.39621   -8.8011522     287312.1    1.1313773 
 3218000    353.88476    2.6897756    286749.88    1.1335955 
 3219000    369.77626    91.688568     283170.7    1.1479238 
 3220000    383.14325    12.992088    287811.07    1.1294158 
 3221000    370.73957   0.87951669    284227.69    1.1436549 
 3222000    367.13181    6.7980749    287390.51    1.1310686 
 3223000    393.56616    45.358322    287618.05    1.1301738 
 3224000    343.28833     59.95179    286362.57    1.1351287 
 3225000    388.23604   -15.545087    289993.66    1.1209155 
 3226000    367.35712   -9.0991988    289596.54    1.1224526 
 3227000    358.95736   -5.3747281    287665.33     1.129988 
 3228000    389.07827    33.151722    287190.83     1.131855 
 3229000    361.56247    44.855187    285774.98    1.1374627 
 3230000     364.9318   -4.3943495    288384.67    1.1271694 
 3231000    385.11213    13.483343    287685.45     1.129909 
 3232000    373.09657    15.026879    288416.13    1.1270465 
 3233000    355.59499   -16.790359    289182.17    1.1240609 
 3234000    383.28299   -13.094312    289608.78    1.1224051 
 3235000      379.216   -17.061314     290195.1    1.1201374 
 3236000    363.27363   -8.2425191     289061.4    1.1245306 
 3237000      375.515   -6.1809399    289277.92    1.1236889 
 3238000    386.50181   -85.165444    293478.32    1.1076061 
 3239000    367.98072    53.306295    289291.36    1.1236367 
 3240000    376.18233   -5.7672429    291280.04    1.1159652 
 3241000    371.47313    2.3493257    289720.26    1.1219733 
 3242000    375.26924   -6.4441219    289540.09    1.1226714 
 3243000    353.33211   -2.6675476    287263.67     1.131568 
 3244000    372.12557   -48.830797     288200.7     1.127889 
 3245000    351.20769   -82.598776    294463.35     1.103901 
 3246000    395.04564    31.320851    292071.74    1.1129402 
 3247000     360.8534   -14.232633    292319.62    1.1119965 
 3248000    385.82211    6.0735799    289327.03    1.1234981 
 3249000    369.12998   -3.9030714    290096.03    1.1205199 
 3250000    377.28733   -26.086457    291852.17    1.1137775 
 3251000    363.37931     107.4917    286971.81    1.1327188 
 3252000    372.25879   -42.507446    291472.13    1.1152297 
 3253000    376.12898    18.250009    286901.39    1.1329969 
 3254000    368.60959    6.2497606     290333.7    1.1196027 
 3255000    362.51708    6.2189846     288061.2    1.1284351 
 3256000    381.72193   -5.7481234    287360.32    1.1311874 
 3257000    372.52838    -27.12472    289598.37    1.1224455 
 3258000    385.94199     112.1092    282297.15    1.1514759 
 3259000    364.11936   -38.270982    287224.45    1.1317225 
 3260000    374.19439   -25.214992    288663.62    1.1260802 
 3261000    367.99429    15.541718    287229.22    1.1317037 
 3262000    383.95788   -12.035101    289939.92    1.1211232 
 3263000     375.5185   -10.037997    288754.75    1.1257248 
 3264000    369.06578   -40.133225    289586.83    1.1224902 
 3265000    353.14612   -74.039671    290145.33    1.1203295 
 3266000    381.92586   -45.991293    288840.71    1.1253898 
 3267000    349.35939    7.1942991    285581.19    1.1382346 
 3268000    380.38904   -12.271939    285715.01    1.1377014 
 3269000     352.3099   -10.955095    288594.18    1.1263511 
 3270000    383.50637    20.342371    286211.42    1.1357282 
 3271000    368.99843    95.217861    283060.33    1.1483714 
 3272000      378.551   -7.4122388    289305.37    1.1235823 
 3273000     356.3817    9.0766322    289373.82    1.1233165 
 3274000    395.82548   -7.7074763    290700.46    1.1181901 
 3275000    370.72165   -10.289955    289355.55    1.1233874 
 3276000    389.79445    39.571713    288852.08    1.1253455 
 3277000    356.63268   -94.580082    294727.51    1.1029116 
 3278000    394.88546    57.091052    290622.45    1.1184903 
 3279000    354.47452    15.150266    288845.25    1.1253721 
 3280000    371.86887   -8.3078549    286414.95    1.1349212 
 3281000    370.21468    23.960504    284821.79    1.1412694 
 3282000    376.32313   -78.947993    289942.15    1.1211146 
 3283000    374.46134   -49.836132    285627.52    1.1380499 
 3284000    370.43247    16.140753    282815.39     1.149366 
 3285000    371.43921    9.4425089    286762.53    1.1335455 
 3286000    369.64397     45.18974    283913.78    1.1449194 
 3287000    379.80853   -56.661425    290958.58    1.1171981 
 3288000    347.79846    8.3035377    283974.04    1.1446764 
 3289000    373.24808   -2.7901689    283183.65    1.1478713 
 3290000     365.1779    65.393346    280253.17    1.1598741 
 3291000    386.11674    14.247448    284087.03    1.1442211 
 3292000    365.44904  0.093511725    284630.84     1.142035 
 3293000    373.75576   -73.800597    285064.77    1.1402966 
 3294000     365.9637   -11.430618     283149.7    1.1480089 
 3295000    371.24472   -2.1347962    284909.58    1.1409177 
 3296000    377.68576    8.0741687    286863.07    1.1331482 
 3297000    393.33488    38.246843    287005.28    1.1325868 
 3298000    370.53101   -13.911225    285665.61    1.1378982 
 3299000    389.72688     14.67875    283493.42     1.146617 
 3300000    380.10673    100.66021    279642.38    1.1624074 
 3301000    377.42362    12.573433    283497.61    1.1466001 
 3302000     370.9319   -1.5255213    287758.11    1.1296237 
 3303000    369.30149    29.667392    286056.86    1.1363418 
 3304000    390.92924    80.906061    284979.92    1.1406361 
 3305000    365.67954    15.133416     284160.9    1.1439237 
 3306000    372.37291   -9.0420965     285750.3    1.1375609 
 3307000    384.14496    46.183202    282211.82    1.1518241 
 3308000    378.75827   -32.376098    285517.49    1.1384885 
 3309000    371.72241    11.943581    283911.96    1.1449267 
 3310000    369.31121    7.6734121     285085.5    1.1402136 
 3311000    382.95322    119.54394    283576.52     1.146281 
 3312000    365.75181   -11.181622    290071.53    1.1206146 
 3313000    369.86722    1.8725746    288266.54    1.1276313 
 3314000    367.47093   -28.470419    288390.18    1.1271479 
 3315000    408.48523    9.7355815     286334.7    1.1352392 
 3316000    358.40008    12.038242    286827.88    1.1332873 
 3317000    372.13243     76.32642    284744.45    1.1415794 
 3318000    364.33115   -21.295244    287586.08    1.1302994 
 3319000    388.30981   -9.3283297    287257.39    1.1315928 
 3320000    370.75169   -88.095554    292348.05    1.1118883 
 3321000    371.66183    14.174843    290129.69    1.1203899 
 3322000    352.04692    12.955044     289370.1    1.1233309 
 3323000    366.40284   -75.650772    289773.15    1.1217685 
 3324000    378.47846   -2.9126862    284239.11    1.1436089 
 3325000    369.40447    26.867204       284817    1.1412885 
 3326000    363.45752   -11.421005    285280.71    1.1394335 
 3327000    396.06637    3.6730228    285137.64    1.1400052 
 3328000    368.38521   -23.199606    286855.03      1.13318 
 3329000    376.83113    3.3047987    288941.41    1.1249975 
 3330000     392.4215    14.842834    287015.45    1.1325466 
 3331000    372.61689    8.8934053    286475.93    1.1346796 
 3332000    331.22117   -24.782765     287281.6    1.1314974 
 3333000    374.22342    10.583461    288869.43    1.1252779 
 3334000    360.60782   -14.196589    291269.18    1.1160068 
 3335000    380.40895    41.845854    287903.88    1.1290518 
 3336000    351.43656     12.20533    287736.79    1.1297074 
 3337000    391.26912    15.003099     287777.2    1.1295487 
 3338000     361.2664    8.7994297     289917.1    1.1212115 
 3339000    387.05573   -28.034499    293713.84    1.1067179 
 3340000    367.55495    3.7229676     289940.3    1.1211218 
 3341000    383.62756    3.4241388    289384.17    1.1232763 
 3342000    366.07105   -14.330081    289838.37     1.121516 
 3343000    382.48378   -8.1307934    285032.81    1.1404245 
 3344000    381.25164   -42.170729     289661.3    1.1222016 
 3345000    390.42958    2.5605019    291083.28    1.1167195 
 3346000     340.4774   -53.398728    290745.26    1.1180178 
 3347000    374.97209    9.2774093    290319.53    1.1196573 
 3348000    353.32606    3.6878932    290980.06    1.1171157 
 3349000    393.29885    1.1269918    289597.34    1.1224495 
 3350000    368.60427   -56.842955    293981.71    1.1057095 
 3351000    370.88856    9.9828372    289632.28    1.1223141 
 3352000    388.24544   -70.342777    289099.38    1.1243828 
 3353000    364.69935    10.360186    286651.19    1.1339858 
 3354000    394.56635   -34.667463    288902.34    1.1251497 
 3355000    352.62656   -1.0910291     285692.2    1.1377923 
 3356000    385.99034   -54.576512    287007.65    1.1325774 
 3357000    372.08187    11.423911    283778.61    1.1454647 
 3358000     381.4876    54.900026    282040.93     1.152522 
 3359000    363.87805    8.8571931    284256.57    1.1435387 
 3360000    376.86532    19.609748    286198.21    1.1357806 
 3361000    363.95387   -37.329174    288660.35    1.1260929 
 3362000    375.63231   -8.5179039    288807.16    1.1255205 
 3363000    375.44833    16.705051    286761.35    1.1335502 
 3364000    366.92075    10.195843    285652.66    1.1379498 
 3365000    366.27205   -83.385749    289021.03    1.1246877 
 3366000    369.92782   -4.5514643    283582.88    1.1462553 
 3367000    384.04172   -24.043341    284376.46    1.1430566 
 3368000    352.47917  -0.92875075    283166.18    1.1479421 
 3369000    391.34886    76.410499    279223.06    1.1641531 
 3370000    365.83251   -4.2427991    282357.35    1.1512305 
 3371000    379.73895    130.17065    275515.06    1.1798207 
 3372000    363.49104  0.067587469    281896.95    1.1531107 
 3373000    375.19968    37.246025    279272.07    1.1639488 
 3374000    339.46085    -22.22255    281537.75    1.1545819 
 3375000    383.52598    6.9512421    282765.22    1.1495699 
 3376000    378.69784   -62.942603    286191.06     1.135809 
 3377000    366.70551   -4.4084089    282309.19    1.1514269 
 3378000    377.63996   -3.7295527    281722.44    1.1538249 
 3379000    352.41216   -8.2477795    285887.94    1.1370133 
 3380000    370.99252   -21.406505    282627.63    1.1501295 
 3381000    373.90379     24.99736    282660.93     1.149994 
 3382000    369.05532   -11.114279    285273.49    1.1394623 
 3383000    381.38316    34.126989    284984.54    1.1406176 
 3384000    361.52912   -4.6306799    284024.73    1.1444721 
 3385000     371.2833   -52.348294    287202.39    1.1318094 
 3386000    352.45594    11.784233    286250.22    1.1355743 
 3387000    397.07194    22.301522    284302.52    1.1433539 
 3388000    350.74869   -6.1214343    284716.08    1.1416931 
 3389000    376.38704   -19.268297    287860.51    1.1292219 
 3390000    371.08861   -21.587703     287787.2    1.1295095 
 3391000    387.88731    14.151141    285981.02    1.1366432 
 3392000    360.42355   -40.106774    287730.68    1.1297314 
 3393000    372.86715   -6.9348199    284387.81     1.143011 
 3394000    383.13942    53.008862    282974.68     1.148719 
 3395000    371.77521   -10.257921    284281.81    1.1434371 
 3396000    381.16484   -77.166713    287058.82    1.1323755 
 3397000    352.23667     10.66129    280375.32    1.1593688 
 3398000    374.27029   -67.639027    285370.84    1.1390736 
 3399000    351.79191   -11.069744    287436.01    1.1308895 
 3400000    365.30882    31.299709    283741.83    1.1456132 
 3401000     374.7014    25.303813    284827.14    1.1412479 
 3402000    374.82038   -10.495093       284328    1.1432514 
 3403000    369.13845   -54.889624    282852.33    1.1492159 
 3404000    382.17249    7.9827859       278891    1.1655392 
 3405000    391.91381    68.551469     276674.8    1.1748753 
 3406000    367.78555     10.95901    278034.47    1.1691298 
 3407000    361.79333    14.399224     280716.4    1.1579601 
 3408000    370.54341   -13.966979    280872.72    1.1573156 
 3409000     366.3994    24.705703    278955.88    1.1652681 
 3410000    376.31212   -1.7835702    280254.27    1.1598695 
 3411000    339.51759   -2.9124852    281879.19    1.1531833 
 3412000    373.22486   -49.496251    285073.03    1.1402635 
 3413000    366.74558     5.523897    286482.16    1.1346549 
 3414000    372.30215   -34.956543    288758.94    1.1257085 
 3415000    366.94259   -16.084223    287242.77    1.1316504 
 3416000    374.46522    14.191371    284960.66    1.1407132 
 3417000    361.39596   -12.408773     285984.1     1.136631 
 3418000    382.15079    10.132616     284058.3    1.1443369 
 3419000    366.13188   -27.343171    284541.13    1.1423951 
 3420000    396.81643   -5.0416031    285709.42    1.1377237 
 3421000    377.39481   -9.3047523    284895.85    1.1409727 
 3422000     395.5144    45.257806    281784.56    1.1535706 
 3423000    373.83128    13.331944    282726.76    1.1497262 
 3424000    363.46536   -14.926636    285388.33    1.1390038 
 3425000    381.99528   -71.845624    290044.69    1.1207183 
 3426000     375.9461    1.5983513     282711.3    1.1497891 
 3427000    382.10348   -15.053315    281738.99    1.1537572 
 3428000     375.1997    3.3088415    281397.79    1.1551561 
 3429000    367.76971    11.800231    282121.18    1.1521942 
 3430000    371.08048    12.524858    283966.18    1.1447081 
 3431000    376.17661     2.408017     288181.7    1.1279633 
 3432000    376.59354    2.2677607    290037.13    1.1207475 
 3433000    365.81731      11.2151    292436.78     1.111551 
 3434000    401.37077    46.818356     290870.4    1.1175368 
 3435000    355.72365    6.8703428    291271.84    1.1159966 
 3436000    354.82522  -0.05883764    290887.39    1.1174715 
 3437000    365.94585   -60.850772    295430.97    1.1002854 
 3438000     390.2013    10.187474    288652.38     1.126124 
 3439000    365.24609    1.6364179    285477.57    1.1386477 
 3440000    375.26481    53.874127    283116.05    1.1481454 
 3441000    361.95377   -15.014357    285177.51    1.1398458 
 3442000    375.02984   -9.6390342    285204.62    1.1397374 
 3443000     393.0558    73.815846    282304.75    1.1514449 
 3444000    369.69362   -10.086736     283673.9    1.1458875 
 3445000    374.03206   -10.118824     284492.3    1.1425911 
 3446000    372.14551   -13.375069    287065.92    1.1323475 
 3447000    364.74531    17.028396    284752.86    1.1415456 
 3448000    368.47858    12.146706    285857.92    1.1371327 
 3449000    388.47295    2.1171114    287312.44    1.1313759 
 3450000    358.25764    50.729891    286137.22    1.1360227 
 3451000    373.65613   -33.670194    286777.92    1.1334847 
 3452000    344.60278    12.198987     284627.7    1.1420476 
 3453000    403.23999     -9.99575    285023.34    1.1404623 
 3454000    381.54244    55.895055    283870.13    1.1450954 
 3455000    382.48473    9.9348699    284337.53    1.1432131 
 3456000    380.44941   -7.4809059    283912.96    1.1449227 
 3457000     362.1777   -43.669173    285943.81    1.1367911 
 3458000    373.98688   -19.928349    285592.88     1.138188 
 3459000    371.92816    2.7225949    284686.18     1.141813 
 3460000       372.86   -74.120729    290535.74    1.1188241 
 3461000    363.10497     15.29465    288781.82    1.1256193 
 3462000    362.30782    12.695041    285469.76    1.1386789 
 3463000     375.6668   -40.361458    288314.57    1.1274435 
 3464000    370.97299    2.6947855    285440.55    1.1387954 
 3465000    382.15522    94.776355    283320.61    1.1473164 
 3466000    379.73729  0.088395198    286247.51     1.135585 
 3467000    368.23981   -2.6046735    286276.07    1.1354717 
 3468000    367.48496   -39.941997    288769.04    1.1256691 
 3469000    348.19545    7.7287751    285443.97    1.1387817 
 3470000    387.99076   -60.867439    286909.66    1.1329642 
 3471000    367.14695   -15.397685     283154.3    1.1479903 
 3472000    385.94645    11.799553    285013.32    1.1405024 
 3473000    358.21158    89.653004    284483.22    1.1426276 
 3474000    388.44151    13.219455    284950.66    1.1407532 
 3475000    366.11785   -18.954371    283567.27    1.1463184 
 3476000    385.25576    10.043315    286015.34    1.1365068 
 3477000    381.41437    10.350452    283863.23    1.1451232 
 3478000    377.28547      18.4189     281253.7    1.1557479 
 3479000    375.96401   -36.496393    280505.18     1.158832 
 3480000     361.8986   -4.8243995    282473.43    1.1507574 
 3481000    358.00668   -19.700152    284927.22    1.1408471 
 3482000    364.07058    28.160962    282737.16     1.149684 
 3483000    389.45618   -8.9203299    286167.12     1.135904 
 3484000    379.36689    13.951311    285313.33    1.1393032 
 3485000    351.80667     99.67586    282489.83    1.1506906 
 3486000    390.11794   -6.6813668    289244.74    1.1238178 
 3487000    361.85507   -9.4793477    289767.28    1.1217912 
 3488000    387.76802     96.12084    283820.41     1.145296 
 3489000    363.12933     2.824585    287823.72    1.1293662 
 3490000    380.76958   -27.575126    288236.23    1.1277499 
 3491000    377.13395    6.4336607    288212.72    1.1278419 
 3492000    369.16364    16.298871    284151.99    1.1439595 
 3493000     380.6593   -5.6485465    287220.74    1.1317372 
 3494000    362.45229    10.310323    286739.06    1.1336383 
 3495000    376.38289   -40.410613    290549.13    1.1187725 
 3496000    389.47486    2.9092391    290909.44    1.1173868 
 3497000    343.97023   -56.762399    292398.55    1.1116963 
 3498000    380.65686   -16.252783    286007.39    1.1365384 
 3499000    368.94309    15.478769    285791.79    1.1373958 
 3500000    366.64214   -28.274581    288649.65    1.1261347 
 3501000    372.46547     8.563682    286211.62    1.1357274 
 3502000    371.61764    8.8516854    286737.76    1.1336434 
 3503000    372.80042   -13.619265    286066.97    1.1363017 
 3504000    368.03552    -6.872117    284076.66    1.1442629 
 3505000     373.4357    31.338009    284744.45    1.1415793 
 3506000    372.03218   -7.1661012    287625.78    1.1301434 
 3507000     361.7451   -70.685775    290700.28    1.1181908 
 3508000    390.09138   -8.8108518    290995.69    1.1170557 
 3509000    375.17129    11.642434    289473.67     1.122929 
 3510000    366.16498    9.3835023    288289.53    1.1275414 
 3511000    372.60996   0.29992677    286780.88     1.133473 
 3512000     375.2478    21.020329    287670.32    1.1299684 
 3513000    370.66065    6.9332395    285147.54    1.1399656 
 3514000    356.24233   -27.205673    287373.46    1.1311357 
 3515000    387.34289   -11.723668    286847.95    1.1332079 
 3516000    373.03436    37.334677    285707.33     1.137732 
 3517000    375.35179    9.5041389    286943.31    1.1328314 
 3518000    387.62556    1.6697794    289823.83    1.1215723 
 3519000     366.1496    9.7947603    285643.65    1.1379857 
 3520000    366.80884    87.686393     279285.6    1.1638924 
 3521000    375.65955    9.8894084    283498.57    1.1465962 
 3522000    372.14257   -53.154522    285077.66     1.140245 
 3523000    362.66291   -1.6283556    284288.44    1.1434105 
 3524000    373.74375   -81.220243    287189.64    1.1318597 
 3525000    394.41232    7.1800431    283129.95     1.148089 
 3526000    372.60296    64.649537    282060.57    1.1524418 
 3527000    383.26576    4.3330619    284239.64    1.1436068 
 3528000    363.47572   -80.210006    288281.48    1.1275729 
 3529000    379.46497    8.9749995    285970.78    1.1366839 
 3530000    359.19982   -21.618713    283151.97    1.1479997 
 3531000     356.9359   -18.713105    284789.22    1.1413999 
 3532000    381.14006    9.3822242    284542.92    1.1423879 
 3533000    394.33403    24.757729    284703.31    1.1417443 
 3534000    370.17784    2.4025589    285743.82    1.1375867 
 3535000    366.14776   -16.444363    285812.34     1.137314 
 3536000    384.13466    10.838613    283398.18    1.1470024 
 3537000    385.51505   -19.131836    285687.39    1.1378114 
 3538000    352.51461   -15.931081    284098.81    1.1441737 
 3539000    348.76918   -0.7339222    283452.99    1.1467806 
 3540000    376.22931    12.457965     282080.4    1.1523607 
 3541000    368.54137    68.876224    278801.79    1.1659121 
 3542000    390.12454    22.692134    283453.29    1.1467794 
 3543000    353.33457  -0.13694159    282024.92    1.1525875 
 3544000    387.26023    9.2678406     283804.6    1.1453598 
 3545000    347.67147    33.000735    282908.85    1.1489863 
 3546000    388.29151   -7.7978677    288436.32    1.1269676 
 3547000    357.91758    11.395716    287151.23    1.1320111 
 3548000    368.98717    6.6216459    285883.79    1.1370298 
 3549000    372.43401     6.231486     284876.3     1.141051 
 3550000    366.65145   -15.648758     283727.3    1.1456718 
 3551000     376.2134    51.122338    279812.74    1.1616997 
 3552000    374.39019   -29.581519       282841    1.1492619 
 3553000    373.36364    4.2324493    282508.63     1.150614 
 3554000    374.10483     5.882266    282601.14    1.1502373 
 3555000    372.76204   0.15329956    282950.67    1.1488165 
 3556000    359.97161    29.974977    284765.54    1.1414948 
 3557000    360.42474     -73.5065    289619.08    1.1223652 
 3558000    360.02818   -29.259624    287307.92    1.1313937 
 3559000    363.61945    7.2834561    288944.34    1.1249861 
 3560000    377.03033   0.37945263    289465.99    1.1229588 
 3561000    372.88986     8.811202    289629.87    1.1223234 
 3562000    384.40189   -20.398894    289830.71    1.1215457 
 3563000    362.08259   -22.761478    288955.46    1.1249428 
 3564000    363.57759    2.8414557    288476.45    1.1268108 
 3565000    357.12126   -1.0730146    284925.81    1.1408527 
 3566000    374.76703   -1.8113794    281745.22    1.1537317 
 3567000     363.7884   -2.3067044    279957.73    1.1610981 
 3568000    372.67959    13.036754    279830.91    1.1616243 
 3569000    379.06023   -82.429284    285494.24    1.1385812 
 3570000     372.7438    -65.78978     286162.4    1.1359227 
 3571000    384.47774     13.20076     282377.6    1.1511479 
 3572000    363.00059    5.5150451    282926.17    1.1489159 
 3573000    369.52303   -1.3327303    284019.81    1.1444919 
 3574000     386.4743   -33.472382    285253.31    1.1395429 
 3575000     366.2201   -67.057783    289581.18    1.1225121 
 3576000    382.77481    -7.633022    282952.18    1.1488103 
 3577000    359.15847   -3.4188348    281068.81    1.1565082 
 3578000    377.81752    9.3289721    280954.44     1.156979 
 3579000    367.83803    29.010521    281785.32    1.1535675 
 3580000    370.45911    8.1028614    286892.81    1.1330308 
 3581000    387.99854    16.012794    283798.54    1.1453843 
 3582000    385.73146    36.680679    284292.35    1.1433947 
 3583000    369.81796    4.1375449    285237.37    1.1396066 
 3584000    369.16237   -1.0027296     286647.5    1.1340004 
 3585000    392.47967    107.02192    281030.31    1.1566666 
 3586000    357.26495   0.13048213    283606.03    1.1461618 
 3587000    366.76295   -1.7958091    287730.36    1.1297326 
 3588000     373.0271   -5.3211326    286936.73    1.1328573 
 3589000    379.00513    16.290474    290525.45    1.1188637 
 3590000    369.80839   -1.4938746    287054.61    1.1323921 
 3591000    359.93197   -17.884994    287051.81    1.1324032 
 3592000    374.89092    9.8171222    283714.09    1.1457252 
 3593000     362.7705    6.2584435    284170.11    1.1438866 
 3594000    387.43298    3.6488645    283078.16    1.1482991 
 3595000    353.77746   -108.14413    288656.19    1.1261092 
 3596000    390.13209    19.544685    285731.87    1.1376343 
 3597000    359.79677   0.22650142    285690.08    1.1378007 
 3598000    384.71323   -2.6406874    284840.61     1.141194 
 3599000    369.09818    4.0576036    283792.99    1.1454067 
 3600000    380.48048    24.818336    283970.79    1.1446895 
 3601000    357.49307    6.1673452    283816.89    1.1453102 
 3602000     383.5667   -122.09143    292071.69    1.1129404 
 3603000    392.06435    49.050083    284472.32    1.1426714 
 3604000    370.35928    25.663048    286817.19    1.1333295 
 3605000    383.77855   -11.184046    286102.58    1.1361603 
 3606000    367.37603    5.6937621    286098.56    1.1361762 
 3607000    388.07005    4.0918932     286835.6    1.1332568 
 3608000    371.12131   -2.2192478    287298.36    1.1314314 
 3609000    383.55899   -44.781958    287237.83    1.1316698 
 3610000    379.24951  -0.64164396    286738.63      1.13364 
 3611000    372.07577   -9.4013787    286638.69    1.1340352 
 3612000    371.55582   -1.4586667    287611.26    1.1302005 
 3613000    388.25106      27.0684    286663.36    1.1339377 
 3614000    374.04205    100.55996    283676.48    1.1458771 
 3615000    382.75638    11.167471    286738.23    1.1336416 
 3616000    357.53447   -4.8151198    289714.44    1.1219958 
 3617000    372.46508    6.6792122    288742.87    1.1257711 
 3618000    373.34248    14.256036    289232.31    1.1238661 
 3619000    379.57748   -10.087834    287073.63    1.1323171 
 3620000    369.05776     1.138233    286493.76    1.1346089 
 3621000    378.04467   -4.3621199    290098.77    1.1205094 
 3622000    373.20499   -2.5559124    287415.28    1.1309711 
 3623000    364.11049   -99.812178    290649.31    1.1183869 
 3624000     375.0058   -2.0126299    286354.62    1.1351603 
 3625000    361.16633    8.5628113    285613.02    1.1381077 
 3626000    370.47586    22.702555    282974.64    1.1487191 
 3627000     377.3863    12.694739     285714.5    1.1377035 
 3628000    358.44064    -3.901447    285857.45    1.1371346 
 3629000    376.75866    -21.90294    287068.82    1.1323361 
 3630000    377.52663   -55.997235    291112.68    1.1166067 
 3631000    362.86696    8.1596439       290138    1.1203578 
 3632000    376.37206    19.825967    285782.56    1.1374325 
 3633000    377.19952     41.86563    284190.28    1.1438054 
 3634000    358.84023    4.2288658    285403.97    1.1389413 
 3635000    386.84446    8.1626422    285612.72    1.1381089 
 3636000    370.99608   -14.089125    288985.01    1.1248278 
 3637000    395.81733   -4.1582917    287944.77    1.1288914 
 3638000      365.134    5.8202861     286319.1    1.1353011 
 3639000    401.00558    33.655031    286809.88    1.1333584 
 3640000    368.54557    7.5664152    288888.78    1.1252025 
 3641000    377.24617   -17.430874    290575.95    1.1186692 
 3642000    380.67895     29.70341     288856.1    1.1253298 
 3643000    356.36933   -6.2085021    290076.63    1.1205949 
 3644000     384.6269    2.7347951    288610.07    1.1262891 
 3645000     337.6989   -103.42511    288319.85    1.1274228 
 3646000    374.68729   -15.782771    284852.67    1.1411456 
 3647000    362.12853    2.9216174    281328.51    1.1554406 
 3648000    387.56188    10.234969    280921.25    1.1571157 
 3649000    369.03123   -37.362228    285536.24    1.1384138 
 3650000    390.94398     66.46135    281996.94    1.1527018 
 3651000    365.11409   -11.011428    285116.29    1.1400905 
 3652000    377.44585    6.7489532    285506.13    1.1385338 
 3653000    371.09811   -3.6006413    286154.26    1.1359551 
 3654000    358.29289   -23.414645    285724.52    1.1376636 
 3655000    387.90728   -65.136002    289592.81     1.122467 
 3656000    351.96409   -9.3586571    285926.49      1.13686 
 3657000    378.61436    7.1019986    284040.28    1.1444094 
 3658000    365.94826    9.7554393     282140.1    1.1521169 
 3659000    383.98249    20.487248    285688.42    1.1378074 
 3660000    367.49881    92.086314    283279.05    1.1474847 
 3661000    378.77258     -67.3325    288822.19    1.1254619 
 3662000    357.63224   -25.331161    290028.88    1.1207794 
 3663000    398.22694   -7.2388965       288260    1.1276569 
 3664000    370.83164   -4.9888507    288210.09    1.1278522 
 3665000    385.42327    3.7071986    289096.96    1.1243922 
 3666000    389.93815   0.99403955    287519.69    1.1305604 
 3667000    363.96914   -1.7980526    287814.46    1.1294025 
 3668000    379.21538  -0.76167209     285781.2     1.137438 
 3669000       367.53    34.381358    283562.66     1.146337 
 3670000    387.65186   -26.681193    287352.23    1.1312193 
 3671000    351.32025   -120.29974    292477.97    1.1113944 
 3672000    386.10545   -103.01633    290733.43    1.1180633 
 3673000    376.86266    43.718687    282201.27    1.1518672 
 3674000    369.39927    28.037782    283011.17    1.1485709 
 3675000    378.17654   -15.444194    286442.26    1.1348129 
 3676000     372.6253    16.354383    284379.36    1.1430449 
 3677000    401.55365   -8.9983649    288863.52    1.1253009 
 3678000    376.22272    19.128902    288190.31    1.1279296 
 3679000    377.22544    34.116237    288209.78    1.1278534 
 3680000    363.51034   -69.546328    293486.42    1.1075755 
 3681000    380.53208    61.276198    288389.82    1.1271493 
 3682000    349.78023    6.1511433    290513.02    1.1189116 
 3683000    396.30922    3.1256933    288331.85    1.1273759 
 3684000    361.58098     2.167644    289475.73     1.122921 
 3685000    365.50012    3.5583872    291066.75    1.1167829 
 3686000    371.68131   -4.6142854    290565.38    1.1187099 
 3687000    370.12852    7.5102362    288600.29    1.1263273 
 3688000    387.49122    -5.754797    288389.26    1.1271515 
 3689000    364.24696   -8.0156772    288011.04    1.1286317 
 3690000    378.62111    -2.013052    290278.45    1.1198158 
 3691000    369.02263   -6.9008394    289965.52    1.1210242 
 3692000    380.73206   -28.362248    291676.67    1.1144477 
 3693000    361.20155    42.375343     289595.2    1.1224577 
 3694000    367.97123   -69.764557    292582.64    1.1109968 
 3695000    384.11365    125.55695    284659.26     1.141921 
 3696000    358.73909   -15.779526    289500.09    1.1228265 
 3697000     389.8097   -14.181022    290034.63    1.1207571 
 3698000     370.5612    4.7754698    288904.75    1.1251403 
 3699000     368.9126    1.8537412    286492.78    1.1346128 
 3700000    370.50393   -5.1789938     287971.3    1.1287874 
 3701000    376.83889     0.571402    286821.66    1.1333118 
 3702000    350.25426    7.0152882    288612.41      1.12628 
 3703000    391.53023    4.3219318    291794.62    1.1139972 
 3704000    374.78147   0.13072502    290201.87    1.1201113 
 3705000    360.82624   -3.3494772    289224.88     1.123895 
 3706000    373.35942   -3.9618971    285492.57    1.1385879 
 3707000    378.30353   -1.4731003    285839.54    1.1372058 
 3708000    350.74809   -4.6781666    283906.91    1.1449471 
 3709000    386.36994    4.7595891    284515.42    1.1424983 
 3710000    363.37118   -5.3799846    285845.22    1.1371832 
 3711000    371.57543   -1.3407465    286440.88    1.1348184 
 3712000     367.0315    -3.589006    287010.73    1.1325653 
 3713000    380.88317 -0.066043888    286873.98    1.1331051 
 3714000    357.18724   -3.1139158    288474.58    1.1268181 
 3715000    392.46514   -3.5906935    286142.35    1.1360024 
 3716000    350.84598    1.0491736     286395.3     1.134999 
 3717000    378.59218    1.2386855    289004.39    1.1247524 
 3718000    369.92821    3.4163666     292963.2    1.1095536 
 3719000     377.1892    -5.879751    295738.31    1.0991419 
 3720000    367.77102    8.6961604    293494.26     1.107546 
 3721000    373.11116   0.33455657     290759.7    1.1179623 
 3722000    365.04503    2.5079211    293289.31    1.1083199 
 3723000    382.86602   -3.7784625    292949.78    1.1096045 
 3724000    356.33947   -1.2924946    294042.48     1.105481 
 3725000    374.72617    6.3096224    292540.89    1.1111554 
 3726000    371.36358    4.3100605    289989.27    1.1209324 
 3727000     364.2399  -0.26022726    292791.73    1.1102034 
 3728000    373.69915   -63.428066    294969.42    1.1020071 
 3729000    360.68104    33.059702    287983.72    1.1287387 
 3730000       379.35    7.7864195    293101.26     1.109031 
 3731000    359.36926  -0.48816926     290635.9    1.1184385 
 3732000    379.45201  -0.90205779    290163.16    1.1202607 
 3733000    370.82258   -2.8998705    288801.02    1.1255444 
 3734000    389.49356    46.807493    284176.17    1.1438622 
 3735000    347.71149   -79.018656    289971.71    1.1210003 
 3736000    397.74986    -18.33987    285471.08    1.1386736 
 3737000     371.9667    -3.760818    285401.21    1.1389524 
 3738000    370.10982    5.9459838    286774.55     1.133498 
 3739000    354.91028    14.818757    287956.08    1.1288471 
 3740000    393.94545    123.83799    284933.08    1.1408236 
 3741000    356.17353    9.1798063    288984.41    1.1248302 
 3742000    403.13509    10.699041    285271.65    1.1394696 
 3743000     369.1769   -5.1739607    285302.67    1.1393457 
 3744000    366.14433   -7.8944444    284985.91    1.1406121 
 3745000    371.23271    55.667017    283746.71    1.1455935 
 3746000    373.99026   -25.629038    287942.58       1.1289 
 3747000     370.9315   -4.2047951     286352.2    1.1351698 
 3748000     368.9771    -2.125773     290446.6    1.1191675 
 3749000    364.30422   0.19104126    289510.02     1.122788 
 3750000    385.55465     6.681956    287446.23    1.1308493 
 3751000    373.40804    123.61584     281724.9    1.1538149 
 3752000    363.94038   -43.722996    286478.04    1.1346712 
 3753000    400.43664    14.398849     285613.9    1.1381042 
 3754000    373.61888   -1.9404843     286186.1    1.1358287 
 3755000     361.3321    2.7280323    286169.83    1.1358932 
 3756000    384.23345    2.4438618    283829.18    1.1452606 
 3757000    367.31735    2.2542243    281146.72    1.1561877 
 3758000    365.96129   -2.1288571    280663.48    1.1581784 
 3759000    376.11272    -1.270945    283875.54    1.1450736 
 3760000    359.58213    5.0160462     284220.3    1.1436846 
 3761000    392.28535    58.011935    282044.58    1.1525071 
 3762000    365.92267    69.220228    281869.29    1.1532238 
 3763000    377.57998   -94.524947    286414.91    1.1349213 
 3764000    367.32331   -9.7758947     283073.4    1.1483183 
 3765000    376.14503    58.881034    283674.25    1.1458861 
 3766000    360.39531   -78.305911    287932.82    1.1289383 
 3767000     387.5679   -25.535441    285662.68    1.1379098 
 3768000    362.81654   -15.316785     285147.4    1.1399661 
 3769000    373.32086   -19.049992    286463.19      1.13473 
 3770000    360.48787   -95.690178    290430.83    1.1192282 
 3771000    381.83698    43.602292    283099.89    1.1482109 
 3772000    346.22675   -29.283725    285041.16     1.140391 
 3773000    380.22089    32.012574     284127.8    1.1440569 
 3774000    383.95655   -14.192194    286606.46    1.1341628 
 3775000    364.36811    26.069408    284962.29    1.1407067 
 3776000    374.98633    20.640856    286781.77    1.1334695 
 3777000    359.98387   -1.0745664    289093.74    1.1244048 
 3778000    355.97144    8.1757266    286318.82    1.1353022 
 3779000    374.69595    6.0556011    287023.19    1.1325161 
 3780000    366.05209     5.642862     288079.2    1.1283646 
 3781000    378.03186   -3.5991945    285288.66    1.1394017 
 3782000    367.48774   -4.4785196    284512.25     1.142511 
 3783000    370.91539    10.403022    283562.47    1.1463378 
 3784000    363.01706   -2.4212387    287798.65    1.1294646 
 3785000    355.77274    3.7463975    290281.91    1.1198024 
 3786000    376.87126    5.8759582    287055.97    1.1323868 
 3787000    367.02335    9.4524583    287287.05    1.1314759 
 3788000    389.21983     5.942409    290442.66    1.1191826 
 3789000    370.44999   -2.7171131    286245.29    1.1355938 
 3790000    375.46384     6.665572    286344.98    1.1351985 
 3791000    378.23896    -3.426398    291371.64    1.1156144 
 3792000    356.89375   -3.2176391    289798.12    1.1216718 
 3793000     393.1446   -1.5937788    293274.08    1.1083775 
 3794000    370.50607    3.1524491    292219.94    1.1123758 
 3795000    371.27271   0.99846154    291267.88    1.1160118 
 3796000    384.75018   -2.9718783     291743.7    1.1141916 
 3797000    364.44415   -9.9228875    289192.74    1.1240199 
 3798000    381.88243    14.707245    288818.63    1.1254758 
 3799000    372.55221    9.1464011    286332.08    1.1352496 
 3800000    373.24433    -11.94194    289180.28    1.1240683 
 3801000     366.2923   -6.2845459    288130.44     1.128164 
 3802000    373.11966    8.4614824    288794.72     1.125569 
 3803000    382.92084     1.479039    285552.41    1.1383493 
 3804000    374.41081   -4.5808135    287997.21    1.1286859 
 3805000    370.03063    3.6957442    290594.86    1.1185965 
 3806000    377.52742    7.3719555    290902.54    1.1174134 
 3807000    381.13181   -30.132294    292309.34    1.1120356 
 3808000    369.26995   -12.605205    291738.56    1.1142112 
 3809000    389.84895    9.0784967    290676.35    1.1182829 
 3810000    363.18291   -2.2072514    289547.56    1.1226424 
 3811000    371.58785    -4.940238    286916.24    1.1329383 
 3812000    403.97084   -22.007986    289806.45    1.1216396 
 3813000    370.95355     76.28818    285954.44    1.1367488 
 3814000    394.35404    17.370732    291068.71    1.1167754 
 3815000    375.24386   -5.3950944    290418.46    1.1192759 
 3816000     379.8258   -5.2202761    286797.65    1.1334067 
 3817000    368.28391    128.10113    282987.42    1.1486673 
 3818000    377.50425   -18.936248    289410.29    1.1231749 
 3819000    369.14623   -5.3456828    286554.92    1.1343668 
 3820000     382.3463    7.5619656    285235.66    1.1396134 
 3821000    366.82774     7.248301    286589.76    1.1342289 
 3822000    377.68573   -22.534059    287461.59    1.1307889 
 3823000    353.52584    110.24841    284024.97    1.1444712 
 3824000    379.27429    -116.9717    296031.07     1.098055 
 3825000    358.97992   -112.80987    294304.08    1.1044984 
 3826000    361.98917    6.9793399    288923.91    1.1250657 
 3827000    386.70732    9.6127143    287920.68    1.1289859 
 3828000    365.18159    19.680322    287406.23    1.1310067 
 3829000    382.96367   -10.510649    291489.16    1.1151646 
 3830000    363.25973   -6.0784367    293156.38    1.1088225 
 3831000    377.43165    6.3972857    293712.74    1.1067221 
 3832000    376.45943   -3.2132812    295411.15    1.1003592 
 3833000    368.62241    5.3336679    293229.84    1.1085447 
 3834000    382.89808    1.8477185    292143.28    1.1126677 
 3835000    360.87536    2.8070418    291257.33    1.1160522 
 3836000    393.12929   -10.991123    296466.13    1.0964436 
 3837000    357.60133   -16.970507     295229.2    1.1010374 
 3838000    369.72336    -111.8609    297029.85    1.0943627 
 3839000    376.60051    103.57598    290941.19    1.1172649 
 3840000    367.71788    1.9129667    294359.83    1.1042892 
 3841000    391.43421    26.390318    288996.31    1.1247839 
 3842000     363.8505    30.697568    290558.09     1.118738 
 3843000    372.84089    6.5841312    289394.75    1.1232352 
 3844000    370.93485   -5.2128408    288856.22    1.1253293 
 3845000    391.70918   -7.2891892     287185.4    1.1318764 
 3846000    357.93462   -15.879777    286799.65    1.1333988 
 3847000    386.59981   -14.131838    285101.42      1.14015 
 3848000    374.94427    20.667798    282763.91    1.1495752 
 3849000     377.0687    29.252744    284322.18    1.1432748 
 3850000    359.28451    13.895501    285728.62    1.1376473 
 3851000    380.48987   -23.686951    288033.67     1.128543 
 3852000    387.10374   -24.990706    289589.55    1.1224797 
 3853000    369.46346   -9.8228171    286052.72    1.1363583 
 3854000    377.34755     20.14919    284539.07    1.1424033 
 3855000    357.54148    15.589992    283673.09    1.1458908 
 3856000    379.80336    6.5943594    285476.76    1.1386509 
 3857000    366.07207   -5.4371847    285975.91    1.1366635 
 3858000    367.96758    1.0936482    286350.67    1.1351759 
 3859000    366.04336   -7.2212565    283862.77    1.1451251 
 3860000    380.45594    1.0638449    281196.48    1.1559831 
 3861000    352.90752  -0.18406713    285195.61    1.1397734 
 3862000    372.65985   -2.3903087    285251.16    1.1395515 
 3863000    375.95432   -3.0332531    286527.43    1.1344756 
 3864000    375.80281    1.3270172    288437.73    1.1269621 
 3865000    376.09492  -0.81923581    288283.81    1.1275638 
 3866000    357.17791   -1.1358452     286178.8    1.1358576 
 3867000    381.31722   -2.1031624    283387.19    1.1470469 
 3868000    382.04071   -19.704897    283581.96     1.146259 
 3869000    362.52803   -40.655244       285440    1.1387976 
 3870000    384.32753    141.36214    278989.59    1.1651273 
 3871000    399.30602    -22.78205    287300.04    1.1314248 
 3872000    365.63187   -10.714235       286709    1.1337572 
 3873000     368.4146    5.4818571    285339.03    1.1392005 
 3874000    387.41932   -3.8093351    286411.44     1.134935 
 3875000    363.62951   0.34709734    284323.14    1.1432709 
 3876000     386.8561    137.75667    282631.36    1.1501144 
 3877000    383.90995    27.555735    286208.18    1.1357411 
 3878000    371.83264   -4.6924007    285391.55    1.1389909 
 3879000    343.56078   -3.6365179    286135.29    1.1360304 
 3880000    377.08768      9.10736    285659.94    1.1379208 
 3881000      370.018    -68.69013    290378.25    1.1194309 
 3882000    386.07975    42.895726    288898.74    1.1251637 
 3883000    362.81054    -5.968499    289651.52    1.1222395 
 3884000    385.94218    6.2631629     289456.1    1.1229972 
 3885000    368.03212   -5.3837239    290135.53    1.1203674 
 3886000    364.53437     -68.8278    291729.29    1.1142466 
 3887000    380.07456    19.039677    288655.02    1.1261137 
 3888000    370.89325    7.6851173    287687.59    1.1299006 
 3889000     385.5811    11.079499     286289.3    1.1354192 
 3890000    367.99205    102.23106    283055.03    1.1483929 
 3891000    358.30536   -3.6566348    284080.79    1.1442463 
 3892000     371.7687    4.5197254    285317.04    1.1392883 
 3893000    358.89184    -48.10063    285659.07    1.1379242 
 3894000    373.84503   -22.893205    284465.12    1.1427003 
 3895000    364.66406    4.7548645    279768.38    1.1618839 
 3896000    354.12532    9.9790168    284676.17    1.1418531 
 3897000     380.9318   -103.85996    288747.47    1.1257532 
 3898000    366.63899   -4.6362693    285665.84    1.1378973 
 3899000    367.28632   0.95094146    284106.26    1.1441437 
 3900000    373.19355   -117.10271    289619.37    1.1223641 
 3901000    371.72063   -2.6398011    285879.24    1.1370479 
 3902000    368.93529   -5.8419342    285578.18    1.1382466 
 3903000    370.90996    60.467386    282166.68    1.1520084 
 3904000    375.16779     10.28134    282402.89    1.1510448 
 3905000    375.09488     13.37507    281112.17    1.1563298 
 3906000    361.83937   -104.56517    289456.58    1.1229953 
 3907000     376.2218   -5.3509076    285714.88     1.137702 
 3908000    370.51459  -0.92372148       284305    1.1433439 
 3909000    362.52303   -40.605137    286447.15    1.1347935 
 3910000    376.61994    34.251561    285370.12    1.1390765 
 3911000    366.43058    6.2234998    286820.13    1.1333179 
 3912000     381.7117   -12.259407     284775.1    1.1414565 
 3913000    367.08269    70.121628    282453.93    1.1508368 
 3914000      368.017   -6.3205705    286616.46    1.1341232 
 3915000    389.78303    7.7758677     285797.5    1.1373731 
 3916000    362.65075    4.7941222    285269.97    1.1394763 
 3917000    370.01711   -37.002663    289738.35    1.1219032 
 3918000    393.71947    6.0165115    288881.72      1.12523 
 3919000    347.37659    25.138917    287580.72    1.1303205 
 3920000    383.79044   -27.960036    291297.91    1.1158967 
 3921000    371.45773   -2.7903535    286645.14    1.1340098 
 3922000    352.87338    9.9185309    286719.46    1.1337158 
 3923000    383.90911    77.914477    283925.67    1.1448714 
 3924000    361.87274    1.6250862    286192.98    1.1358014 
 3925000    346.73371    4.5954405     288341.8     1.127337 
 3926000    374.26883    51.409836     285115.7    1.1400929 
 3927000    364.43198   -14.759632    285016.58    1.1404894 
 3928000    379.93425    5.3666301    284825.36    1.1412551 
 3929000    359.88924   -22.478719    288230.58     1.127772 
 3930000    377.01767    79.782052    284459.13    1.1427244 
 3931000    384.57433    7.9438565    284541.16    1.1423949 
 3932000    366.07803   -3.0595352    283509.18    1.1465533 
 3933000    381.18743    91.643634    283925.95    1.1448703 
 3934000    360.22373    11.474188     286148.1    1.1359795 
 3935000    382.40156    -2.464096    287170.16    1.1319365 
 3936000    368.72904    28.530696    287012.75    1.1325573 
 3937000    396.34885   -9.8067091    290850.22    1.1176143 
 3938000    351.97404   -5.0205259    286362.97    1.1351272 
 3939000    374.53693   -7.4719006    288064.87    1.1284208 
 3940000    379.96459    62.346352    286470.66    1.1347004 
 3941000    371.00697    5.4837991    287510.84    1.1305952 
 3942000    368.59817    21.206463    288949.63    1.1249656 
 3943000    375.54592   -28.447716    290907.45    1.1173945 
 3944000    366.21156    1.1547319       288199    1.1278956 
 3945000    395.64747   -20.280131    291286.68    1.1159397 
 3946000    345.43122   -15.486747     291278.3    1.1159718 
 3947000    392.93298    8.1663655    288511.38    1.1266744 
 3948000    364.12455    1.2382586    288074.05    1.1283848 
 3949000     387.4348   -11.217926    288784.21      1.12561 
 3950000    362.79076   -7.0626701    286370.11    1.1350988 
 3951000    380.11551     67.44614    282758.34    1.1495978 
 3952000    370.56646   -7.5774903    284240.88    1.1436018 
 3953000    377.09085    20.348139    283852.44    1.1451668 
 3954000    366.53017   -21.316307    288708.65    1.1259046 
 3955000    376.97847    12.548092    285542.07    1.1383905 
 3956000    380.04201    -1.436629    286215.02    1.1357139 
 3957000    367.16745    7.2427045    286684.71    1.1338532 
 3958000     399.1132   -48.443066    288421.54    1.1270253 
 3959000    371.13959   -6.1226127    287401.14    1.1310268 
 3960000    376.58509    21.607511    286333.95    1.1352422 
 3961000     350.4358    4.3564151    289780.76     1.121739 
 3962000     365.7269   -1.8655902     288965.4    1.1249042 
 3963000    387.94232    4.3536106    289603.57    1.1224253 
 3964000    377.14369    31.066957    285970.64    1.1366845 
 3965000    380.50057   0.38409459     285814.8    1.1373042 
 3966000     351.4731    40.641754    287904.92    1.1290477 
 3967000     391.0623   -8.1999702     289215.8    1.1239302 
 3968000    370.50441    123.43291    281221.64    1.1558797 
 3969000    371.42859   -2.7497834    285467.82    1.1386866 
 3970000     369.5019   -53.674512    287688.54    1.1298969 
 3971000    360.81819     11.03492    281813.64    1.1534516 
 3972000    372.52768   -25.847662    285243.25    1.1395831 
 3973000    364.66555    10.677176    284430.45    1.1428396 
 3974000    377.21827    93.057066    281000.14    1.1567908 
 3975000    397.85331    -2.541068    285881.31    1.1370396 
 3976000    363.65256   -114.96785    291185.42    1.1163278 
 3977000     378.9507    8.5186674    286239.43    1.1356171 
 3978000    393.14876   -12.259319    287460.82    1.1307919 
 3979000     358.3525   -12.327662     285936.2    1.1368214 
 3980000    371.16615   0.12422384    286963.63    1.1327511 
 3981000    339.43264   -43.597721    286838.38    1.1332458 
 3982000    374.77214    -5.275394    283213.15    1.1477517 
 3983000    363.32081   -85.022948    288746.69    1.1257562 
 3984000    380.41218    8.8406001    287042.36    1.1324404 
 3985000    379.90433   -103.93743    290512.05    1.1189153 
 3986000    372.56584    9.8483897    286515.94    1.1345211 
 3987000    353.40316    95.152682    286605.75    1.1341656 
 3988000    348.89915    7.8960716    288762.99    1.1256927 
 3989000    377.42525   -44.599887    290162.58    1.1202629 
 3990000    366.55871    2.9945367    290227.77    1.1200113 
 3991000    364.38138    9.8804483    289301.95    1.1235955 
 3992000    381.44018   -7.6331944    288518.54    1.1266464 
 3993000    368.02187    113.08008    280268.04    1.1598125 
 3994000      364.142   -7.1210008    285296.37    1.1393709 
 3995000    393.85687    79.877842    282895.29    1.1490414 
 3996000    382.66024    6.1252811    285474.73    1.1386591 
 3997000    368.06616   -15.172003    286690.32     1.133831 
 3998000    368.78505   -8.6393165    286510.88    1.1345411 
 3999000    377.81876     66.79353    282241.47    1.1517031 
 4000000    383.42378     1.700823    284765.64    1.1414944 
Loop time of 897.583 on 1 procs for 4000000 steps with 750 atoms

Performance: 192.517 ns/day, 0.125 hours/ns, 4456.411 timesteps/s
99.9% CPU use with 1 MPI tasks x no OpenMP threads

MPI task timing breakdown:
Section |  min time  |  avg time  |  max time  |%varavg| %total
---------------------------------------------------------------
Pair    | 621.13     | 621.13     | 621.13     |   0.0 | 69.20
Neigh   | 160.2      | 160.2      | 160.2      |   0.0 | 17.85
Comm    | 27.084     | 27.084     | 27.084     |   0.0 |  3.02
Output  | 0.072727   | 0.072727   | 0.072727   |   0.0 |  0.01
Modify  | 80.121     | 80.121     | 80.121     |   0.0 |  8.93
Other   |            | 8.98       |            |       |  1.00

Nlocal:    750 ave 750 max 750 min
Histogram: 1 0 0 0 0 0 0 0 0 0
Nghost:    1635 ave 1635 max 1635 min
Histogram: 1 0 0 0 0 0 0 0 0 0
Neighs:    14565 ave 14565 max 14565 min
Histogram: 1 0 0 0 0 0 0 0 0 0

Total # of neighbors = 14565
Ave neighs/atom = 19.42
Neighbor list builds = 232779
Dangerous builds = 60004

#unfix 		1
#fix		1 all nve
#run 		2000000

#dump pos all xyz 10 lj.xyz

dump		2 all custom 10 lj_trajectory_match_npt_test.out id mass x y z xu yu zu fx fy fz
dump_modify	2 sort id
dump_modify	2 format line "%d %.2f %.12f %.12f %.12f %.6f %.6f %.6f %.3f %.3f %.3f"

run		30000
Per MPI rank memory allocation (min/avg/max) = 4.527 | 4.527 | 4.527 Mbytes
Step Temp Press Volume Density 
 4000000    383.42378     1.700823    284765.64    1.1414944 
 4001000    363.43992    -32.24141    283876.11    1.1450713 
 4002000    379.08922   -9.1968717    286076.65    1.1362632 
 4003000    377.94169   -4.8315438    287662.74    1.1299982 
 4004000     361.0346   -1.7022412    286418.03     1.134909 
 4005000    391.87858    15.178444    284250.98    1.1435611 
 4006000    379.03857    8.1166511    287577.57    1.1303329 
 4007000    368.13549     18.68632    287200.01    1.1318188 
 4008000    381.78115   -22.989817     290146.7    1.1203242 
 4009000    363.93322   -13.257252     286909.9    1.1329633 
 4010000    375.62051    23.904644    286384.23    1.1350429 
 4011000    364.49362    13.211715    287286.56    1.1314778 
 4012000    369.09085   -24.627583    285519.72    1.1384796 
 4013000    359.51064    5.0061901    284532.36    1.1424303 
 4014000     398.0968    41.012034    282113.36    1.1522261 
 4015000     372.4511    10.548272     282378.9    1.1511426 
 4016000     366.2963    6.9426962    282389.35       1.1511 
 4017000    381.92065   -0.7081159    281701.51    1.1539107 
 4018000    394.82517    53.020693    281422.43     1.155055 
 4019000    370.43759    13.337255    283982.17    1.1446436 
 4020000    373.25866    37.118663    280844.25    1.1574329 
 4021000    381.51397    2.6750623    282366.35    1.1511938 
 4022000    365.82988   -3.4625096    284957.74    1.1407249 
 4023000    382.71536    4.2102257    287859.01    1.1292278 
 4024000     366.9572    6.1083859       290514    1.1189078 
 4025000    375.27734   -52.658995    290676.78    1.1182812 
 4026000    369.65544   -3.5085012    285088.57    1.1402014 
 4027000    364.63807    48.374557    283739.51    1.1456226 
 4028000    392.04431    1.3792092    285204.56    1.1397377 
 4029000    367.25256    8.0260697    284642.65    1.1419876 
 4030000    374.49514   -12.118733    285864.34    1.1371071 
Loop time of 18.0806 on 1 procs for 30000 steps with 750 atoms

Performance: 71.679 ns/day, 0.335 hours/ns, 1659.239 timesteps/s
99.0% CPU use with 1 MPI tasks x no OpenMP threads

MPI task timing breakdown:
Section |  min time  |  avg time  |  max time  |%varavg| %total
---------------------------------------------------------------
Pair    | 4.7633     | 4.7633     | 4.7633     |   0.0 | 26.35
Neigh   | 1.3298     | 1.3298     | 1.3298     |   0.0 |  7.36
Comm    | 0.21703    | 0.21703    | 0.21703    |   0.0 |  1.20
Output  | 11.083     | 11.083     | 11.083     |   0.0 | 61.30
Modify  | 0.61756    | 0.61756    | 0.61756    |   0.0 |  3.42
Other   |            | 0.07025    |            |       |  0.39

Nlocal:    750 ave 750 max 750 min
Histogram: 1 0 0 0 0 0 0 0 0 0
Nghost:    1605 ave 1605 max 1605 min
Histogram: 1 0 0 0 0 0 0 0 0 0
Neighs:    14554 ave 14554 max 14554 min
Histogram: 1 0 0 0 0 0 0 0 0 0

Total # of neighbors = 14554
Ave neighs/atom = 19.4053
Neighbor list builds = 1887
Dangerous builds = 384

####################################
# 6) Advanced inputs
####################################

#dump		2 all custom 1000 positions.lammpstrj id x y z vx vy vz
#dump_modify	2 sort id

#compute		RDF all rdf 150 cutoff 3.5
#fix		RDF_OUTPUT all ave/time 25 100 5000 c_RDF[*] file rdf_lj.out mode vector

#compute		MSD all msd
#fix		MSD_OUTPUT all ave/correlate 1 5000 5000 c_MSD[*] file msd_lj.out ave running

#compute		VACF all vacf
#fix		VACF_OUTPUT all ave/correlate 1 2500 5000 c_VACF[*] file vacf_lj.out ave running

#run		5000

#write_restart	restart2.lj.equil
Total wall time: 0:15:18
