LAMMPS (3 Mar 2020)
####################################
# Example LAMMPS input script      #
# for a simple Lennard Jones fluid #
####################################


units		real
atom_style	atomic
dimension	3
boundary	p p p

lattice 	custom 13 a1 1.0 0.0 0.0 a2 0.0 1.0 0.0 a3 0.0 0.0 2.0 		basis 0.0 0.0 0.0 basis 0.5 0.5 0.5 		basis 0.25 0.25 0.0 basis 0.75 0.75 0.0 basis 0.75 0.25 0.5 basis 0.25 0.75 0.5
Lattice spacing in x,y,z = 13 13 26
region 	space block 0 4 0 4 0 4
create_box 	2 space
Created orthogonal box = (0 0 0) to (52 52 104)
  1 by 1 by 1 MPI processor grid
create_atoms 	1 box basis 3 2 basis 4 2 basis 5 2 basis 6 2
Created 384 atoms
  create_atoms CPU = 0.000241564 secs

####################################
# 2) Define interparticle interactions
#   - Here, we use truncated & shifted LJ
#   - All atoms of type 1 (in this case, all atoms)
#     have a mass of 1.0
####################################

pair_style	lj/cut 15
pair_modify	shift yes
pair_coeff	1 1 0.5 4.25
pair_coeff	1 2 1.45 5.75 #0.8 7.5
pair_coeff	2 2 1.0 7.5 #0.6 10.0
mass		1 102.181
mass		2 340.419

####################################
# 3) Neighbour lists
#   - Each atom will only consider neighbours
#     within a distance of 2.8 of each other
#   - The neighbour lists are recalculated
#     every timestep
####################################

neighbor        0.3 bin
neigh_modify    delay 10 every 1

####################################
# 4) Define simulation parameters
#   - We fix the temperature and
#     linear and angular momenta
#     of the system
#   - We run with fixed number (n),
#     volume (v), temperature (t)
####################################

#fix		LinMom all momentum 50 linear 1 1 1 angular
#fix		1 all nvt temp 1.00 1.00 5.0
fix 		1 all npt temp 373.0.0 373.0 25.0 iso 1.0 1.0  10.0

####################################
# 5) Final setup
#   - Define starting particle velocity
#   - Define timestep
#   - Define output system properties (temp, energy, etc.)
#   - Define simulation length
####################################

velocity	all create 373.0 199085 mom no

timestep	0.5

thermo_style	custom step temp press vol density


run_style	verlet

thermo		1000
run		4000000
Neighbor list info ...
  update every 1 steps, delay 10 steps, check yes
  max neighbors/atom: 2000, page size: 100000
  master list distance cutoff = 15.3
  ghost atom cutoff = 15.3
  binsize = 7.65, bins = 7 7 14
  1 neighbor lists, perpetual/occasional/extra = 1 0 0
  (1) pair lj/cut, perpetual
      attributes: half, newton on
      pair build: half/bin/atomonly/newton
      stencil: half/bin/3d/newton
      bin: standard
Per MPI rank memory allocation (min/avg/max) = 3.088 | 3.088 | 3.088 Mbytes
Step Temp Press Volume Density 
       0          373    18332.499       281216   0.59182227 
    1000    366.10244   0.31638047     942038.3   0.17666998 
    2000    376.63287  0.033902342    826534.26   0.20135873 
    3000    347.91541    -1.225648    645370.66   0.25788264 
    4000    390.40163   0.18445201    559570.05   0.29742459 
    5000    355.52992   0.54255514    514460.39    0.3235038 
    6000     391.5514    1.6330203    487140.14   0.34164685 
    7000    356.61934    1.1108664    473124.48   0.35176766 
    8000    375.92639    1.8305653    473775.46   0.35128432 
    9000    370.32703   0.71331168     458003.3   0.36338142 
   10000    377.13583    1.3272357    443912.52   0.37491596 
   11000    387.54614   0.92028875    433803.03   0.38365313 
   12000    351.24698   0.65054535    405970.69   0.40995543 
   13000    387.69323   0.70182118    405498.51   0.41043281 
   14000    376.34973    18.387785    380962.95   0.43686634 
   15000    373.95804    1.1494012    364725.31   0.45631572 
   16000    369.66091  -0.12129522     334830.5   0.49705714 
   17000    331.56933   -1.3228899    318146.47    0.5231235 
   18000    375.45618   0.44609039    299489.65   0.55571167 
   19000     354.7339   0.66574843    288387.48   0.57710511 
   20000     382.8299   0.75286942    272507.58    0.6107349 
   21000    358.05427  -0.92778159     254928.2   0.65285006 
   22000    386.01725   -8.8181456    239309.77   0.69545799 
   23000    395.46049     1.825213    225259.22   0.73883719 
   24000    356.45691  -0.15173941    215252.06   0.77318605 
   25000    393.69976   0.62794975    205659.29   0.80925053 
   26000    354.69796    2.1883069    198214.32   0.83964617 
   27000     373.8018    76.582323    186842.53   0.89074949 
   28000    356.41236  -0.10670185    185784.45   0.89582252 
   29000    365.95333  -0.95179999    180527.34   0.92190963 
   30000    374.88767   -146.50609    181923.69   0.91483355 
   31000    370.12331   -1.4723548    173209.48   0.96085901 
   32000    375.69732    48.004054    168819.27   0.98584651 
   33000    393.88858    1.9719592    168790.14   0.98601667 
   34000    334.91537   -10.186088    166741.69   0.99813002 
   35000    381.79191   -2.1383844    168928.85   0.98520706 
   36000    371.23638    62.523786    165159.55    1.0076916 
   37000    405.24848     3.345344    162889.12    1.0217373 
   38000    368.67234   -37.078758    163008.34      1.02099 
   39000    367.94757   -3.1389062    164107.88    1.0141493 
   40000    380.20873    31.342148    161576.08    1.0300404 
   41000    365.03068    1.0266941    162661.95    1.0231643 
   42000    401.45828   -5.6322861    161065.96    1.0333027 
   43000    361.69802    14.927922    157927.65    1.0538363 
   44000    373.70786     -3.23382    159002.59    1.0467118 
   45000    393.45969    -94.11194    162160.49    1.0263283 
   46000    369.15251  -0.62529168    157236.33    1.0584697 
   47000    377.71749   -2.8701667    156218.78    1.0653642 
   48000    376.56871    24.626183    154614.88    1.0764158 
   49000    364.57062   -1.0329354    154577.26    1.0766777 
   50000    374.47731   0.83039171    153014.36     1.087675 
   51000    372.95075     159.2261     146373.9    1.1370189 
   52000    372.76203   0.58677894    150097.97    1.1088084 
   53000    377.07414   -2.5885692    149879.73     1.110423 
   54000    381.35638    50.028602    147307.92    1.1298095 
   55000    347.67285    2.2665131    145930.19    1.1404761 
   56000    404.93514    27.299387    145543.55    1.1435058 
   57000    367.81964    15.897479    146783.07    1.1338493 
   58000    381.79876  -0.24149264    145697.49    1.1422976 
   59000    366.50535    1.0084564    145944.51    1.1403642 
   60000    352.05893   -40.607848    148041.43    1.1242116 
   61000    374.92627   0.36413716    146679.24     1.134652 
   62000    364.46995   -44.487542    147186.09    1.1307447 
   63000    390.99982    4.2028266    147002.48     1.132157 
   64000    364.98041   -7.4547699    146125.18    1.1389542 
   65000    379.27773    3.7056176    144821.66    1.1492058 
   66000    364.16277   -1.7468607    144819.73    1.1492211 
   67000    374.35288   -48.643638    145178.77     1.146379 
   68000    370.31054    6.2646388     144181.2    1.1543106 
   69000     382.0909   -19.269057    145987.22    1.1400306 
   70000    365.50987   -4.8407328    146577.22    1.1354417 
   71000    382.12227    -1.602613    148443.21    1.1211688 
   72000    368.63709   -3.2951833    146677.12    1.1346684 
   73000    405.41416    216.12797    143552.47    1.1593662 
   74000    361.84423   -3.6110559    146240.18    1.1380586 
   75000    377.59025    17.232291    145357.64    1.1449683 
   76000    361.67741    3.5891893    147309.83    1.1297949 
   77000     368.8861    5.1067057     146951.9    1.1325467 
   78000    388.88064    2.3508083    147123.83    1.1312232 
   79000    368.37276   -76.083837    146811.89    1.1336268 
   80000    374.87823   -9.3152092    148275.49     1.122437 
   81000    402.27304   -1.7264908    147632.75    1.1273236 
   82000    370.95936   -31.132135    147162.74    1.1309241 
   83000    373.79528    4.1496154    145665.48    1.1425486 
   84000    379.87794    1.1309708    145508.09    1.1437845 
   85000    369.79997    2.7438283    145324.01    1.1452333 
   86000    375.49608    1.5637478    146799.99    1.1337187 
   87000    374.07862    79.250426    144357.51    1.1529008 
   88000    366.25876   -1.1315658    146502.89    1.1360178 
   89000    391.73062    8.1989302     145419.6    1.1444805 
   90000    368.93316    160.95223    141197.23     1.178705 
   91000    329.16246    18.395571    144129.91    1.1547214 
   92000     371.8275  -0.68731523    144534.95    1.1514854 
   93000    358.52344    1.8344599    144087.01    1.1550652 
   94000    396.83744    -21.86236    146264.19    1.1378718 
   95000    364.94355    157.55201    141057.88    1.1798695 
   96000    380.64696    1.2821416    144662.89    1.1504671 
   97000    361.74097  -0.55946371    146421.66     1.136648 
   98000    367.97752     56.45203    146972.09    1.1323911 
   99000    364.24976   -12.207666     147755.6    1.1263864 
  100000    394.57657  -0.39480987     149393.3    1.1140385 
  101000    388.78616    172.89104    144473.11    1.1519784 
  102000    393.05954     3.302559    148296.42    1.1222786 
  103000    366.38569   -16.969752    149022.09    1.1168136 
  104000    386.79514    3.3901437    149681.62    1.1118926 
  105000    350.62869    103.72969    145102.34    1.1469828 
  106000    377.04436    1.2320698    146873.89    1.1331482 
  107000    373.37651    213.18293    142154.38    1.1707687 
  108000    383.83236   -1.8450656    145794.26    1.1415394 
  109000    362.37513    9.3332958    145324.16    1.1452321 
  110000     387.7361    21.507615    147241.53     1.130319 
  111000    356.56916    5.6441297    146503.79    1.1360108 
  112000    391.29811   -10.519545     147717.4    1.1266776 
  113000    362.22094   0.18020239    147901.73    1.1252735 
  114000    371.51791    -3.567942    148063.88    1.1240412 
  115000    362.02405    205.27654    144122.27    1.1547826 
  116000    392.29303   -2.3909768    146761.54    1.1340157 
  117000    373.59122    -6.135071    146168.14    1.1386194 
  118000    384.60396    212.17953    143186.85    1.1623267 
  119000    365.37488   0.16798117    146397.27    1.1368374 
  120000    382.70532   -2.0219521    145911.96    1.1406185 
  121000    359.56701   -166.38632    149434.69      1.11373 
  122000    374.93374    4.0085055    145317.32     1.145286 
  123000     340.2853 -0.0021619635    145768.65    1.1417399 
  124000    391.36545   -62.261018    146742.02    1.1341665 
  125000    366.37794     4.193459     144712.8    1.1500703 
  126000    375.74976   -59.731856    145809.97    1.1414164 
  127000    343.46855   -14.599178    143780.45     1.157528 
  128000    388.62403    3.6955573    143200.78    1.1622136 
  129000    353.19972   -121.67621    145897.43    1.1407321 
  130000    372.55028    7.1374493    144292.76    1.1534182 
  131000    368.72652    4.9492183    144081.69    1.1551079 
  132000    375.91665   -147.65553    148541.95    1.1204235 
  133000    389.47612    11.818593    144240.23    1.1538382 
  134000    346.54941    5.2885954    146430.47    1.1365796 
  135000    375.09323   -3.7346989    147030.97    1.1319376 
  136000    369.34507    81.645418    144538.13    1.1514601 
  137000    384.28637   -23.059954    147060.69    1.1317089 
  138000    388.39878    3.0374495    145921.06    1.1405475 
  139000    343.17411   -2.1461232    147026.79    1.1319698 
  140000    406.37532   -6.6818736     146610.6    1.1351832 
  141000     360.8269    17.414237    147548.85    1.1279647 
  142000    371.62141   -66.811156    150583.65    1.1052321 
  143000    369.75031   -155.47281    151887.35    1.0957456 
  144000    350.39019    70.612766    142266.88    1.1698428 
  145000    378.63631   -36.956051    145772.32    1.1417112 
  146000    365.77124   -2.9516996    142799.76    1.1654774 
  147000    375.09149   -3.0984887    142864.83    1.1649466 
  148000    365.34589  -0.80518878    144616.31    1.1508377 
  149000    371.63978  -0.47307321    143270.59    1.1616472 
  150000     361.3029   -8.7478332     145809.4    1.1414209 
  151000     378.1422    71.467429    146233.65    1.1381094 
  152000    369.04998    80.027131    145432.29    1.1443806 
  153000      376.505    11.385293    147100.09    1.1314058 
  154000    392.12247   -7.2262069    147876.83     1.125463 
  155000    356.09724   -3.2464411    148412.61    1.1213999 
  156000    398.85875    6.9929321    146847.41    1.1333526 
  157000    398.14044   -5.6623085    147743.21    1.1264808 
  158000    368.15611   -4.4636471    147077.39    1.1315804 
  159000    381.66021    6.4653878    148073.22    1.1239702 
  160000    388.04229   -6.0986255    148978.63    1.1171394 
  161000    364.39535    1.3677518     149097.8    1.1162465 
  162000    362.88444    -9.519851    150462.98    1.1061185 
  163000     381.5577   -11.240647     150953.5    1.1025242 
  164000    371.79461    28.428256    150874.21    1.1031036 
  165000    382.48483   -1.0206619    152059.57    1.0945046 
  166000    361.40147   -93.578158     154261.9    1.0788788 
  167000    362.23332   -29.893203    154034.13    1.0804741 
  168000    359.98409    92.727383    150773.09    1.1038435 
  169000    380.96433    30.470843    151973.55    1.0951241 
  170000     354.0902    13.224899    150959.57    1.1024799 
  171000    372.87249   -9.7565524    149581.02    1.1126405 
  172000    350.18295    7.0895044    148471.82    1.1209528 
  173000     396.4214   -4.6100358     147925.9    1.1250896 
  174000    368.97867    9.1646939    145344.97    1.1450681 
  175000    380.59716   -4.9577805    146115.35    1.1390308 
  176000    365.05172    72.414208    146159.44    1.1386872 
  177000    378.62512    7.1586272    146950.92    1.1325543 
  178000    376.76802   -9.2367367    148215.68    1.1228899 
  179000    402.86077   -7.6741821    149515.51    1.1131279 
  180000    355.22956   -15.515011     149014.9    1.1168674 
  181000    350.60302   -146.58953    151562.24     1.098096 
  182000     351.7973   -18.728242    147560.38    1.1278766 
  183000    409.41711   -1.4169224    149406.65     1.113939 
  184000    351.08092   -21.322245    151095.07    1.1014912 
  185000    370.97773     150.6168     148643.4    1.1196588 
  186000    362.00093  -0.34556387    150488.49     1.105931 
  187000    361.10988   -11.130484     152029.5    1.0947211 
  188000    364.80131   -83.216116    153435.37    1.0846905 
  189000    387.90582    -39.34273    149984.59    1.1096466 
  190000    360.54028    4.7690452     148849.6    1.1181078 
  191000    381.13633    14.307273    148533.05    1.1204907 
  192000    364.16712   -100.76466    149897.37    1.1102923 
  193000    366.23568    10.724709    149226.52    1.1152836 
  194000    370.06941    7.1138309    149241.15    1.1151743 
  195000     379.0516   -73.688858    152277.32    1.0929394 
  196000    367.03615   -12.099448    150519.03    1.1057066 
  197000    380.33107   -20.880649    150153.06    1.1084016 
  198000    414.32437   -17.943138    149260.67    1.1150285 
  199000    351.01472    10.053028    147456.65      1.12867 
  200000    387.29132   -45.484208    149467.45    1.1134858 
  201000      370.646    9.0536626    148077.87    1.1239349 
  202000    369.70477    -13.53251    148654.74    1.1195734 
  203000    384.85912    156.17928    145737.59    1.1419833 
  204000    363.48044   -12.707077    147460.55    1.1286401 
  205000    395.68482   -10.445657    147119.64    1.1312554 
  206000    356.01045   -27.130495    147988.79    1.1246115 
  207000    371.26243    34.821731    147431.08    1.1288657 
  208000    373.46185    11.048718    147842.72    1.1257226 
  209000    370.80835   -7.4395978    148802.36    1.1184627 
  210000    372.22609     21.17062    149137.32    1.1159507 
  211000    363.58359     176.3489    144145.03    1.1546003 
  212000    362.09924   -13.069632    146662.81    1.1347791 
  213000    383.75268   -1.1791859    146868.75    1.1331879 
  214000    375.35487   -5.1147451    145993.66    1.1399803 
  215000     383.6323   -20.666771    146102.66    1.1391298 
  216000    382.50841    125.21448    141601.83    1.1753371 
  217000    363.17566    18.518663    144186.94    1.1542647 
  218000    391.84281   -7.7173421    145049.65    1.1473995 
  219000    344.88218   -34.885911    146228.72    1.1381477 
  220000    389.02894    142.49357    143656.94    1.1585231 
  221000    372.89716    -7.005291    146426.11    1.1366135 
  222000    361.45007   -4.5899657    146491.05    1.1361096 
  223000    382.02631    33.714902    146742.02    1.1341665 
  224000    369.84772    32.195524    147741.08     1.126497 
  225000    349.57138   -7.5895202    150040.01    1.1092367 
  226000    371.85247  -0.49793521    150545.57    1.1055117 
  227000     359.7497    5.7388329    150136.02    1.1085274 
  228000    359.78691    16.123794    147400.89    1.1290969 
  229000    384.87549    11.436189    149702.07    1.1117408 
  230000    369.11506    9.9862109    147428.18    1.1288879 
  231000    373.87535   -9.7711388    147431.25    1.1288644 
  232000    369.53449   -46.047743    146688.14    1.1345832 
  233000    390.48636   -69.921958    149227.36    1.1152773 
  234000    359.33103    3.7878267    146305.38    1.1375514 
  235000    386.90114   -9.2993101    146041.65    1.1396057 
  236000    366.15616     3.756554    146764.12    1.1339958 
  237000    398.47624   -74.458512    149090.39     1.116302 
  238000    360.43097   -74.001146    149036.12    1.1167084 
  239000    387.45188     17.85007    145425.16    1.1444367 
  240000    350.76037   -8.1143271    144164.82    1.1544418 
  241000    381.61875   -7.8059137    146373.67    1.1370207 
  242000     406.8319    73.842168    142446.28    1.1683695 
  243000    342.46978   -97.300074    145583.82    1.1431895 
  244000    388.43967    16.687172     144806.5    1.1493261 
  245000    352.71011   -7.7418953    146485.23    1.1361548 
  246000    393.27497    16.189762    145914.75    1.1405968 
  247000    361.22378    78.277594    143291.48    1.1614779 
  248000     373.4257   -107.28071    146094.76    1.1391914 
  249000    384.60695   -3.8661988    146649.58    1.1348815 
  250000    372.78556    4.5906994    145720.62    1.1421163 
  251000    369.00457   -33.927285    148879.09    1.1178863 
  252000    362.54613   -74.077955     150754.2    1.1039818 
  253000    388.43195    10.842301    149435.63    1.1137229 
  254000    352.47544    9.2900695    148261.98    1.1225393 
  255000    378.20766     32.14677    146838.89    1.1334184 
  256000    386.68573    194.61599    141988.86    1.1721334 
  257000    368.47808    43.992464    144139.84    1.1546418 
  258000    365.08954   -18.075904    142996.52    1.1638737 
  259000    375.03945     2.285224    143388.29    1.1606938 
  260000    343.35319   -6.9105071    143743.45    1.1578259 
  261000    384.04122   -12.343851    143835.06    1.1570885 
  262000    360.83925    -104.6824    145132.47    1.1467447 
  263000    347.21769     73.87391    142283.85    1.1697033 
  264000    380.41209   -12.154711    143141.72    1.1626931 
  265000    355.79229    10.009499    141972.52    1.1722683 
  266000     389.4132    21.406612    141952.88    1.1724305 
  267000    368.77809    -133.1673    146846.72    1.1333579 
  268000    347.93659    67.690875    141680.28    1.1746864 
  269000    377.84627    13.016369    142130.29    1.1709671 
  270000    373.21091    11.688171    143013.11    1.1637387 
  271000    361.33134   -65.597454    145829.31     1.141265 
  272000    364.46374    70.491763    143146.87    1.1626513 
  273000    382.42394    11.720582    146420.97    1.1366534 
  274000    365.75306    5.7295837    147778.77    1.1262098 
  275000    382.49996    36.811553    146676.16    1.1346758 
  276000    370.64397    48.218239    146416.69    1.1366866 
  277000    408.50635   -8.9271382    146314.59    1.1374798 
  278000    349.14557    1.4967762    145236.62    1.1459224 
  279000    392.80466   -57.198641    147500.23    1.1283365 
  280000    386.96871    43.752287    144752.63    1.1497538 
  281000    366.62385   -13.834343    145097.84    1.1470184 
  282000    382.99993    8.9350856    144441.07    1.1522339 
  283000    364.11175   -6.7666989    145043.57    1.1474475 
  284000    360.38671    87.613447    142866.52    1.1649327 
  285000    383.22112     44.55055     143860.9    1.1568807 
  286000    336.09124    -6.215762    146205.76    1.1383265 
  287000    392.58285    9.7183363    147508.69    1.1282718 
  288000    357.64917    37.060279    144915.24    1.1484637 
  289000    385.48465    127.92276    142969.01    1.1640977 
  290000      370.688    21.566046    143441.14    1.1602661 
  291000    363.17872   -2.7080256    144804.28    1.1493437 
  292000    401.80524    14.011062     143638.2    1.1586743 
  293000    351.68294   -83.941286    145610.87    1.1429771 
  294000    380.19467   -81.176447    147463.92    1.1286143 
  295000    372.57432    8.5767201    145825.55    1.1412944 
  296000    354.52832    8.6786768    144334.08     1.153088 
  297000    343.85404    -13.65273    146025.88    1.1397287 
  298000    353.37254    43.454555     144358.1    1.1528961 
  299000    389.00528    -97.35383     148278.2    1.1224164 
  300000    357.17316    12.626272    146411.72    1.1367252 
  301000    375.35412   -10.049821    146808.94    1.1336496 
  302000     377.7655   -62.989786    148206.52    1.1229593 
  303000    356.50125    57.717882    146054.61    1.1395046 
  304000    400.94231   -8.3008124    144992.84     1.147849 
  305000    360.29845   -4.6589119    143526.94    1.1595725 
  306000    403.54379   -2.7429823    146216.21    1.1382451 
  307000     370.9387    105.90401    143445.95    1.1602272 
  308000    372.71719    17.306757    146020.68    1.1397693 
  309000    382.88061   -6.9613383    146800.56    1.1337143 
  310000    378.23115    19.409959    145461.73     1.144149 
  311000    350.56006    10.128587    146040.89    1.1396116 
  312000    390.71869    30.432341    146139.79    1.1388404 
  313000    370.09183    10.128367    145397.29    1.1446561 
  314000    389.96832    -27.26319     145416.5    1.1445048 
  315000    331.20061   -120.55888    147850.96    1.1256599 
  316000    399.01073    15.422498    146452.77    1.1364065 
  317000    374.32743    8.6564417    147019.32    1.1320273 
  318000    367.35743    15.338678    147822.41    1.1258773 
  319000    394.93212    -147.7475    150768.35    1.1038782 
  320000    356.50669   -19.129372    147523.73    1.1281567 
  321000     382.2075    6.7752149    147083.71    1.1315318 
  322000    364.58688   -11.802857    147597.72    1.1275912 
  323000    394.56492    141.84311    145899.37     1.140717 
  324000    378.32568    2.7386158    146999.88    1.1321771 
  325000    362.38443     -6.73177    148051.21    1.1241373 
  326000     389.1159   -4.0120973    148262.06    1.1225386 
  327000     353.4842    97.908939    145391.87    1.1446988 
  328000    362.45467   -7.9156269    149042.64    1.1166596 
  329000    377.19888   -3.4379083    150170.28    1.1082745 
  330000    364.10687   -2.2334978    149216.07    1.1153617 
  331000    365.08299    8.6064698    147797.73    1.1260653 
  332000    396.27796    8.4843053    145606.81     1.143009 
  333000     359.0363   -20.253359    146520.33    1.1358826 
  334000    378.48882    58.486528    144089.33    1.1550466 
  335000    386.83755   -6.3212352    146712.08     1.134398 
  336000    361.25883   -32.099093    146291.72    1.1376577 
  337000    378.37137   -77.362874    150137.72    1.1085149 
  338000    361.36388     6.449828    145534.39    1.1435778 
  339000    359.72829    44.585594    144000.94    1.1557556 
  340000    387.85846   -47.697083    144468.71    1.1520134 
  341000     352.7208    4.4016855    143597.03    1.1590065 
  342000    361.12132   -2.4347232    145078.43    1.1471719 
  343000    375.81022   -2.3425616    145956.11    1.1402735 
  344000    372.01924    15.525622    147747.71    1.1264465 
  345000    382.00534    -1.575052    146573.16    1.1354732 
  346000    365.00321    35.372122    144215.67    1.1540347 
  347000    367.86172    19.962445    145006.06    1.1477444 
  348000    394.98188    20.164365    145148.18    1.1466206 
  349000    378.64091   -36.501242    146799.03    1.1337261 
  350000    356.32351   -8.4855871    146294.76     1.137634 
  351000    386.99809    9.0784796    147304.01    1.1298395 
  352000    387.53398    10.504715    143256.74    1.1617596 
  353000    342.41408    27.273696    141748.38     1.174122 
  354000    380.27311     16.26158    143237.82    1.1619131 
  355000    356.07227    57.581916    143897.44    1.1565869 
  356000    376.40918    13.674812    145801.63    1.1414817 
  357000    343.87672    167.22879     144085.1    1.1550806 
  358000    391.51438   -8.5612168    147503.09    1.1283146 
  359000    359.91955    166.85723    144017.92    1.1556193 
  360000    363.35481   -3.4545456    146904.64     1.132911 
  361000    387.24342   -48.139525    148824.06    1.1182996 
  362000    354.25485   -20.174606    147135.62    1.1311325 
  363000     403.5818    6.7590711    146789.76    1.1337977 
  364000    375.90171    105.86774    146416.35    1.1366892 
  365000    370.40389    1.9310588    147539.35    1.1280373 
  366000    372.07758    25.384559    145756.84    1.1418325 
  367000     370.6108    25.935711    144520.69    1.1515991 
  368000    357.22678    11.727207    144944.25    1.1482338 
  369000    379.43473   -157.69262    149485.36    1.1133524 
  370000    356.74834   0.37320287    147396.96     1.129127 
  371000    385.68793    49.188155    146661.45    1.1347896 
  372000    339.50332   -11.590598    146046.67    1.1395665 
  373000    367.57999    12.797603     144596.3    1.1509969 
  374000     380.9349    44.346087    145029.89    1.1475558 
  375000    344.78736   -13.359923    141619.49    1.1751906 
  376000    398.26759   -80.473421    144807.81    1.1493157 
  377000    370.35444    11.911245    142938.72    1.1643443 
  378000    348.81127   -28.826868       143676    1.1583695 
  379000    370.19368    70.342268    142338.02    1.1692582 
  380000    394.81102   -8.3241684    144866.34    1.1488513 
  381000    359.54714    28.698909    145234.48    1.1459393 
  382000    381.56767   -7.8822331     146941.9    1.1326238 
  383000    363.18231    15.144223    146537.64    1.1357484 
  384000    379.80016    4.9680685    146531.03    1.1357997 
  385000    367.86465   -67.993147    147558.76    1.1278889 
  386000    374.36738   -9.8407792     147548.8    1.1279651 
  387000    354.78443   -8.2511271    146382.34    1.1369534 
  388000    367.46568    6.2035302    145888.06    1.1408055 
  389000    393.11572    18.033213    146398.76    1.1368258 
  390000    369.38005   -5.3832968    147262.64    1.1301569 
  391000    371.18406   -8.6603911    145510.47    1.1437657 
  392000    373.78294   -151.91458    150038.57    1.1092474 
  393000    388.95758    16.682285    146359.47     1.137131 
  394000    348.84997    9.9198579    148679.42    1.1193875 
  395000     372.2219    3.3325675    147075.61    1.1315941 
  396000    363.76883   -24.902046    146591.44    1.1353316 
  397000    360.53852    5.7616144    146529.62    1.1358106 
  398000    390.30092    31.621215    147043.87    1.1318383 
  399000    364.97447   -40.393782    147163.47    1.1309185 
  400000    393.66655    1.9713991    144916.86    1.1484508 
  401000    364.77855    -25.66888    144592.25    1.1510291 
  402000    391.51233    55.773731    143711.86    1.1580804 
  403000    368.07081    3.3414149    145405.97    1.1445877 
  404000    375.35029   -58.447818    146927.81    1.1327324 
  405000    372.55461     9.147858    145525.61    1.1436467 
  406000     369.9678   -7.3459318    147392.04    1.1291647 
  407000    371.78186     181.2802    144664.23    1.1504564 
  408000    381.50731    9.3110329    147092.71    1.1314625 
  409000    375.14494   -44.479246    149421.38    1.1138291 
  410000      363.735   -18.315144    145391.61    1.1447008 
  411000    388.43817    11.190509    144378.62    1.1527323 
  412000    360.52643   -98.633885    146980.59    1.1323256 
  413000    363.87082   -2.7320779    145390.42    1.1447102 
  414000    380.16627   0.15834842    145746.28    1.1419152 
  415000    379.55416    109.99334    143036.79     1.163546 
  416000    360.72848   -13.577648    147448.92    1.1287291 
  417000    387.79331     9.949686    147636.82    1.1272926 
  418000    369.95621   -145.88173    149871.15    1.1104866 
  419000    367.87493    10.920004    145709.76    1.1422014 
  420000    377.47177   -12.506138    144287.12    1.1534633 
  421000     387.9679    10.784518    145196.52    1.1462388 
  422000    354.92096    9.2167953    145771.17    1.1417202 
  423000    356.87935    4.1060157    146685.07    1.1346069 
  424000     383.4522     9.174967       147550    1.1279559 
  425000    374.98188     35.60598       145761    1.1417999 
  426000    390.02497   -26.131192    146685.75    1.1346017 
  427000    363.26321    5.7316663    146433.65     1.136555 
  428000    378.04191    133.90409    143830.76    1.1571231 
  429000    365.01058     11.46805    147164.87    1.1309078 
  430000    379.70034    19.486972    147777.24    1.1262214 
  431000     376.2148    77.416508    145678.92    1.1424432 
  432000    381.73582    10.748025    148856.82    1.1180535 
  433000    362.70752   -18.044494    148954.47    1.1173205 
  434000       367.07    36.839763    148111.05    1.1236832 
  435000    381.17603    10.241995    149747.46    1.1114038 
  436000     362.5298   -30.039396    148717.08    1.1191041 
  437000    372.31827    121.30722    144648.89    1.1505784 
  438000    396.29807    9.5735033    144714.34    1.1500581 
  439000     361.3361    5.4312774    143260.99    1.1617251 
  440000    370.70832    -91.25658    145874.14    1.1409143 
  441000     353.2089    15.249843    143765.74    1.1576464 
  442000     382.0018   -8.5299002    144459.04    1.1520905 
  443000    362.99245    11.564654    144345.74    1.1529948 
  444000    350.51559   -75.167759     145020.3    1.1476317 
  445000    382.67507     -63.2831    146143.06    1.1388149 
  446000    353.38323    -12.01562    145110.08    1.1469216 
  447000    370.21307   0.15739559    147595.97    1.1276046 
  448000    382.28307    23.211301    146684.41     1.134612 
  449000    358.75795   -158.03976    149174.14    1.1156752 
  450000    368.64896   -1.9760484    147678.78    1.1269723 
  451000     377.7566   -6.8435761    148050.52    1.1241426 
  452000    354.33255   -7.8843426    146794.35    1.1337622 
  453000    385.58124    -12.72988    147588.63    1.1276607 
  454000    369.64019   -5.9329895    148413.24    1.1213951 
  455000    391.17287   -10.859187    146505.93    1.1359942 
  456000    342.32897   -126.83639    148642.76    1.1196637 
  457000    382.00493    13.723043    146002.65    1.1399101 
  458000    362.83825    2.5937954    145867.63    1.1409652 
  459000    374.95999   -68.998735    149079.98    1.1163799 
  460000    370.51538   -5.9332299    148709.79     1.119159 
  461000    371.47618   -24.606662     150040.5    1.1092331 
  462000    379.39958   -14.720127    149794.35    1.1110559 
  463000    376.89692    17.630556    148754.45     1.118823 
  464000    397.18131   -10.723511    147177.03    1.1308143 
  465000    375.59449   -19.864689     149507.6    1.1131869 
  466000    368.52261    41.672556     148129.2    1.1235455 
  467000    375.27882   -14.690146    147125.32    1.1312117 
  468000    392.17373   -27.365696     145497.6    1.1438669 
  469000    366.49212   -7.5263547    144120.96    1.1547931 
  470000    356.57174    106.92861    143831.14    1.1571201 
  471000    381.00016    12.083407    144913.56     1.148477 
  472000    345.15249   -5.4482505    144533.27    1.1514988 
  473000    402.42113   -31.170433    146503.38     1.136014 
  474000    351.60105   -7.5318454    145286.88     1.145526 
  475000    392.40152   -87.918124    149521.81     1.113081 
  476000    362.73353   -13.563326     147857.2    1.1256123 
  477000    379.44142   -8.9015596     148985.6    1.1170871 
  478000    342.30367   -135.92313     149102.6    1.1162105 
  479000    395.75493     6.630005    144546.49    1.1513935 
  480000     354.1226   -15.732541    146103.96    1.1391197 
  481000    384.51622   -112.92703    148405.26    1.1214555 
  482000    368.15993    12.481871    145896.44    1.1407399 
  483000    379.64411    4.1812711     146079.2    1.1393127 
  484000    367.51015    -74.17469    146715.72    1.1343699 
  485000    376.15475    11.296466    144244.37    1.1538051 
  486000    369.60209   -50.488411     146198.3    1.1383846 
  487000    354.84703    29.773726    145164.73    1.1464898 
  488000    387.04347   -15.017619    145989.47     1.140013 
  489000    345.82046   -86.333563    146377.96    1.1369874 
  490000    383.76817    -10.65459    146580.73    1.1354145 
  491000    361.84181    142.36847    144808.95    1.1493067 
  492000    381.55757    1.7189795     147722.3    1.1266403 
  493000    366.31177   -36.513927    148372.98    1.1216994 
  494000    338.46096    19.402661    149078.41    1.1163917 
  495000    381.45152   -17.605763    150241.43    1.1077497 
  496000    391.65874    10.129279    147620.05    1.1274207 
  497000    362.77757    14.660917    146773.51    1.1339232 
  498000    385.41891    28.274045    147682.62     1.126943 
  499000     374.2822    40.887171    146445.42    1.1364636 
  500000    369.33723   -15.814433    148171.82    1.1232223 
  501000    378.94132    130.87391    143328.95    1.1611743 
  502000    383.21328    17.255595    146043.19    1.1395937 
  503000    365.01797   -29.271595    145707.48    1.1422193 
  504000    390.06594   -87.566906     148999.4    1.1169837 
  505000    356.96169   -4.6705112    147272.44    1.1300817 
  506000    398.47237   -44.228881    148732.78     1.118986 
  507000    365.34061   -7.9507786    146732.92    1.1342369 
  508000    376.79319    5.5049348    145628.32    1.1428402 
  509000    369.19065   -35.735254    147695.07     1.126848 
  510000    378.44162    58.577271    145524.75    1.1436535 
  511000    370.71244   -9.3036692    146447.47    1.1364477 
  512000    367.22209   -14.657633    146780.57    1.1338687 
  513000    408.01297   -26.105568    147609.19    1.1275036 
  514000    366.08551   -6.7752572    147832.11    1.1258034 
  515000    384.11428    174.62076    145594.65    1.1431044 
  516000    358.96011    14.550584    151350.35    1.0996334 
  517000    391.16926    47.886831    149332.17    1.1144946 
  518000    366.33642   -22.550571    152164.21    1.0937519 
  519000    380.18177   -11.053054     150336.7    1.1070476 
  520000    375.36999   -60.674702    151288.33    1.1000842 
  521000    372.56929    15.657717    148932.43    1.1174859 
  522000    359.17807    27.495051    147813.55    1.1259447 
  523000    390.88606    1.0616813    148773.65    1.1186786 
  524000    372.74421   -16.717713    146584.22    1.1353875 
  525000    377.17324    121.36597    144073.26    1.1551754 
  526000    366.73751  -0.42584054    147125.65    1.1312092 
  527000    358.37911    80.440814    144842.51    1.1490404 
  528000    392.81865    -10.24234    145886.92    1.1408144 
  529000    353.61656   -21.143542    146328.47    1.1373719 
  530000    342.57097    41.542329    144655.96    1.1505222 
  531000    406.54083    12.927064    145158.86    1.1465362 
  532000    357.93375     61.40513    142954.31    1.1642174 
  533000    386.68874   -7.1440549    145507.63    1.1437881 
  534000    363.29953   -53.188358    145613.03    1.1429601 
  535000    383.38906   -20.309773    145736.48     1.141992 
  536000     362.8722   -23.002296    144564.56    1.1512496 
  537000    376.40485     59.06712     142188.4    1.1704886 
  538000    389.11328    16.198854    142764.98    1.1657613 
  539000    370.05701    30.850817    144321.74    1.1531866 
  540000    417.78348    14.674911    146618.31    1.1351235 
  541000    374.62275    14.298862    146097.81    1.1391676 
  542000    351.52934    5.3534268    144043.16    1.1554168 
  543000    359.16036   -1.5739746    143542.33    1.1594481 
  544000    387.63212    63.188706    144980.34     1.147948 
  545000    372.37287    41.246612    147610.18     1.127496 
  546000    357.37794   -4.4658644    149408.87    1.1139224 
  547000    381.71436   -56.471383    147970.21    1.1247527 
  548000    369.76254   -40.661835    150056.13    1.1091176 
  549000    347.40039   -13.361849    147586.32    1.1276783 
  550000     359.8411    91.531121    144125.71    1.1547551 
  551000    394.32452    37.342372    146694.32    1.1345354 
  552000    363.28651    2.1367858    145538.09    1.1435487 
  553000    366.73522   -132.38241    147372.65    1.1293133 
  554000    363.73084   -2.6937402    146605.58     1.135222 
  555000    369.94138   -34.902447    147848.67    1.1256773 
  556000    362.06558    -11.20711    148599.08    1.1199927 
  557000    379.19303     12.79021    147199.78    1.1306395 
  558000    366.89112   -46.855835     148259.2    1.1225603 
  559000    384.43454   -5.7177158    148146.09    1.1234174 
  560000    366.68103   -85.044227    147373.77    1.1293047 
  561000     369.6553    12.739859    143951.49    1.1561526 
  562000    394.04377    126.94786    142834.42    1.1651945 
  563000    375.55568   -8.9964678    151173.13    1.1009225 
  564000    374.01707   -7.3781988    152095.74    1.0942443 
  565000    378.96456    69.155545    149323.28    1.1145609 
  566000    358.24107   -16.669218    152450.14    1.0917005 
  567000     384.3745    22.097451    148688.26     1.119321 
  568000    363.97439    -45.40465    149655.26    1.1120885 
  569000    376.87456   -9.0084941    149285.26    1.1148447 
  570000    368.37974     31.62759    147320.57    1.1297125 
  571000     385.6193    91.117804    146144.56    1.1388032 
  572000    374.06336    14.443749    150422.79    1.1064141 
  573000    378.36043    28.998779    149338.09    1.1144504 
  574000    347.36767   -17.031905    149407.92    1.1139295 
  575000     395.3655    10.301699    148281.73    1.1223898 
  576000    379.38619   -10.281788    148558.81    1.1202964 
  577000    362.53374   -10.140888    147964.61    1.1247952 
  578000    362.48935    123.07121    144494.05    1.1518114 
  579000    361.13122   -9.2389363    146157.57    1.1387018 
  580000     380.3788   -98.695694    148228.91    1.1227897 
  581000    386.93278    5.7551339    145154.37    1.1465717 
  582000    362.11847    23.630511    143770.17    1.1576107 
  583000    347.16039   -62.444227    147032.85    1.1319232 
  584000    385.89913   -1.6392202    146679.36     1.134651 
  585000    353.48714   -63.906851    147127.18    1.1311975 
  586000    411.40019   -6.6262661    146440.33    1.1365031 
  587000    368.97812    14.881708    145051.54    1.1473845 
  588000    347.59476   -93.980789    146207.47    1.1383132 
  589000    392.85308    26.815273    144231.16    1.1539108 
  590000    370.76398     4.050861    147473.97    1.1285374 
  591000    408.44666    57.812109    145472.41     1.144065 
  592000    371.68269   -58.154067    148996.56    1.1170049 
  593000    375.24435    5.6015431    146581.01    1.1354124 
  594000    380.37518    18.988494    146331.26    1.1373502 
  595000    372.26852    -8.807762    145324.45    1.1452298 
  596000    372.17171   -79.771694    146290.49    1.1376672 
  597000    385.10443   -21.095848    146179.59    1.1385303 
  598000    358.22136    3.5774982    147823.72    1.1258673 
  599000    392.94758   -34.687012    146024.78    1.1397373 
  600000    346.43854   -139.83474    148169.52    1.1232397 
  601000    391.00597   -3.7341679    144617.02     1.150832 
  602000    370.38063    13.196733    145373.29     1.144845 
  603000    383.13608    35.246204    145516.45    1.1437187 
  604000    376.58942    161.82545    142121.59    1.1710388 
  605000    391.04172   -2.8625784    145812.07    1.1413999 
  606000     368.0282    -22.92055    147662.99    1.1270928 
  607000     376.2406    75.202979    144962.51    1.1480892 
  608000    397.96025    23.445283    149666.92    1.1120018 
  609000    357.55112    6.5846973    151438.29    1.0989948 
  610000    387.38223   -86.852807    151583.18    1.0979443 
  611000    352.13182    5.7510619    150411.59    1.1064965 
  612000    375.22078   -15.235799    149393.57    1.1140365 
  613000    372.58595   -1.2937908    147066.81    1.1316618 
  614000    386.43318    82.989609    144481.86    1.1519085 
  615000    336.79381   -20.263749    148883.55    1.1178528 
  616000    389.60022   -13.159103    149419.21    1.1138453 
  617000    356.06759    20.710206    147811.04    1.1259639 
  618000    402.87925   -5.1033079    150875.41    1.1030949 
  619000    363.58224     9.876833    151201.42    1.1007164 
  620000    360.94696    67.954103    147411.36    1.1290168 
  621000    382.16434   -78.098215    148786.69    1.1185805 
  622000      361.822   -14.296384    146072.02    1.1393687 
  623000    373.76019   -20.528686    145869.72    1.1409489 
  624000    373.22438   0.99136432    146408.43    1.1367508 
  625000    366.68378   -11.433124    147713.15      1.12671 
  626000    376.70261    18.981249    147205.41    1.1305963 
  627000    346.29574   -12.888436    148617.44    1.1198544 
  628000    395.85063   -48.273932    150287.98    1.1074065 
  629000    372.68726   -117.67722    149845.56    1.1106761 
  630000     374.9985   -1.9253354    145397.47    1.1446546 
  631000    374.51431    3.6572466    145811.75    1.1414025 
  632000    399.85868    25.203698    148235.05    1.1227432 
  633000    365.63453    125.32502    145497.65    1.1438665 
  634000    393.28897    52.501738    145517.68    1.1437091 
  635000    360.16366    23.402399    145808.26    1.1414298 
  636000    371.49478   -11.266162    144180.73    1.1543144 
  637000    334.38877   -5.5431865    143620.35    1.1588183 
  638000    375.37584    101.13641    145135.63    1.1467197 
  639000    358.17373   -75.668624    148245.43    1.1226646 
  640000    373.36428    9.7037337    145446.94    1.1442653 
  641000    355.18262    8.7868433    146999.48    1.1321802 
  642000    360.33569    18.675956    147673.52    1.1270124 
  643000    380.14174    10.641803    148982.38    1.1171112 
  644000    373.16736   -40.485656    148391.03     1.121563 
  645000    349.88995   -16.621232    147287.27     1.129968 
  646000    395.41001    9.2274028    147600.72    1.1275683 
  647000    386.83936    80.000851    146736.59    1.1342085 
  648000    368.39328   -101.84657    151562.61    1.0980934 
  649000    371.58618   -1.7871488    146671.26    1.1347137 
  650000    354.81757    10.981105    146926.67    1.1327412 
  651000    392.68819     116.4396    144396.38    1.1525904 
  652000    365.87576   -9.8120973    147225.43    1.1304426 
  653000    386.51681  -0.35964357    148340.63    1.1219441 
  654000    359.34607    32.968282    147887.81    1.1253794 
  655000    384.64879    135.51694    144698.68    1.1501825 
  656000    356.50478   -13.092089    147957.72    1.1248476 
  657000    383.57894   -1.7169488    147029.04    1.1319525 
  658000    362.69736    165.58247    143555.94    1.1593383 
  659000    383.65919    18.088593    147522.17    1.1281687 
  660000    351.06013     32.74013    146013.41    1.1398261 
  661000     365.8451   -88.623294    149310.21    1.1146585 
  662000    354.60354    15.833109    145312.11     1.145327 
  663000    398.51968     -9.60113    145652.06    1.1426539 
  664000    371.64551   -22.859554    145034.13    1.1475222 
  665000    376.15365    -14.02923    147866.56    1.1255411 
  666000    357.69536    -30.00789    148938.17    1.1174428 
  667000    377.73027    16.987261    146804.01    1.1336876 
  668000    349.83896   -5.3735376     145388.2    1.1447276 
  669000    392.88268   -22.560602    146047.48    1.1395602 
  670000     356.0752   -105.45454    149041.49    1.1166682 
  671000     378.6734    33.976533    146100.74    1.1391448 
  672000    373.79083    15.481313    148200.68    1.1230036 
  673000    387.15173    -20.70899     149039.4    1.1166838 
  674000    366.33886    22.348328    147421.85    1.1289364 
  675000    374.56276   -57.606973    146043.57    1.1395907 
  676000    385.26539    7.3433687    145463.95    1.1441315 
  677000    362.67641   -16.400618    147833.12    1.1257957 
  678000    364.28223    5.9867504    147158.52    1.1309565 
  679000     371.3424    76.896687    146778.48    1.1338848 
  680000    382.49511    27.079713    146670.42    1.1347202 
  681000    368.31812    6.9817791    147082.75    1.1315392 
  682000    376.88351    6.3863755    144842.99    1.1490366 
  683000    388.49087    49.113933     143642.3    1.1586412 
  684000     386.0058   -35.330544    146198.33    1.1383844 
  685000    345.48578   -1.3369124    145214.68    1.1460955 
  686000     373.1001   -1.2771867     145764.3     1.141774 
  687000    365.75528   -19.620701    146976.09    1.1323603 
  688000    385.05218    -61.17868     149138.8    1.1159396 
  689000    364.50627    12.631337    146468.92    1.1362813 
  690000    386.56691    31.121732    146464.26    1.1363174 
  691000    371.49633    54.107367    146345.21    1.1372418 
  692000    347.11064    6.1150583    146830.95    1.1334797 
  693000    404.50946   -81.334366    147815.01    1.1259337 
  694000    376.23739    -9.942499    146678.28    1.1346594 
  695000      393.564   -17.345094    144599.09    1.1509747 
  696000    348.89793   -78.139901    143512.35    1.1596903 
  697000    378.64977    3.8444737    143145.66    1.1626611 
  698000    399.52872     -32.1297    146459.83    1.1363518 
  699000    380.61669    5.6061925    146509.25    1.1359685 
  700000    357.29097   -52.749454    147985.55    1.1246361 
  701000    383.12983   -9.1631944    148739.44    1.1189359 
  702000    383.78365    31.959121    147647.72    1.1272094 
  703000    348.49083    23.293346    147739.52    1.1265089 
  704000    389.88899   -12.838148    148380.12    1.1216455 
  705000    373.55615   -31.450417    149171.48    1.1156951 
  706000    370.08908     21.68874    147117.87    1.1312691 
  707000    354.12555   -51.233424    147941.84    1.1249684 
  708000    378.00011    6.8034673    148382.79    1.1216253 
  709000    358.65632   -98.412041    151137.89    1.1011792 
  710000    383.13749   -6.7211465    147692.69    1.1268661 
  711000    380.85503     13.83563    146088.12    1.1392431 
  712000    368.81302   -19.763757    149326.41    1.1145376 
  713000    405.13688   -12.612451    150872.01    1.1031197 
  714000    353.30844   -86.699847    150885.84    1.1030186 
  715000     360.6245    13.735973    147136.05    1.1311293 
  716000    374.85745    23.309444    146913.79    1.1328405 
  717000    395.02666    27.532324    147955.11    1.1248675 
  718000    372.39024    1.6726845    149142.49     1.115912 
  719000    367.64198    30.241718    149309.83    1.1146613 
  720000    350.94374   -12.520009    149436.17     1.113719 
  721000    358.54182    30.396484    146147.36    1.1387814 
  722000    384.91898   -115.29045    147582.35    1.1277087 
  723000    343.91719  -0.72635081    145052.24     1.147379 
  724000    359.64608    11.272848    147536.77     1.128057 
  725000     374.6629    39.154098    147032.23     1.131928 
  726000     361.9031   -13.661057    145669.41    1.1425178 
  727000    401.64773   -13.501764    145271.58    1.1456466 
  728000    364.47921    12.791163    145880.62    1.1408636 
  729000    387.14531    28.827885    147411.95    1.1290122 
  730000    376.54937    35.009649    148545.75    1.1203949 
  731000    353.17784    12.369963       149251    1.1151007 
  732000    380.56718    -63.08067    148705.52     1.119191 
  733000     376.5162   -78.731325    146418.94    1.1366691 
  734000    367.77263    9.1395339    144161.96    1.1544646 
  735000    395.92636   -6.6570274    145407.04    1.1445793 
  736000    349.53922    22.238748    144593.35    1.1510204 
  737000    380.55704   -38.846047    146443.62    1.1364776 
  738000    358.09626   -13.193567    145948.54    1.1403327 
  739000    376.26365    13.669195    144837.16    1.1490828 
  740000    376.54984    31.253408    143961.53     1.156072 
  741000    358.18824    165.80555     141859.2    1.1732048 
  742000    350.25928   -33.468369    146399.07    1.1368234 
  743000    393.88648   -11.594667    146849.23    1.1333385 
  744000    364.21585   -11.915631    147489.32      1.12842 
  745000    374.38003    1.9767506    148073.26    1.1239699 
  746000    343.72521    134.54899    145463.15    1.1441378 
  747000      391.401   -70.673121     149833.2    1.1107678 
  748000    376.47505    21.029293    147078.05    1.1315753 
  749000    356.41074    5.2063094    147790.88    1.1261174 
  750000    366.47315    34.820324    146997.97    1.1321918 
  751000    360.19711   -141.97079    150169.43    1.1082807 
  752000    402.26428    17.854328    149000.84    1.1169728 
  753000    350.08044   -15.993102    149540.03    1.1129454 
  754000    391.22741   -8.7413291    149488.73    1.1133273 
  755000    354.22754   -35.278701    147244.38    1.1302971 
  756000    357.24599    130.88368    143452.34    1.1601755 
  757000    373.98005    99.827218    145069.07    1.1472459 
  758000    380.74227   -10.417885    147015.29    1.1320584 
  759000    362.58804     27.17618    148067.12    1.1240165 
  760000    360.11465   -2.5014848    146319.12    1.1374446 
  761000     377.9059   -4.3687495    145086.16    1.1471108 
  762000     369.0194   -2.9311487    145432.36    1.1443801 
  763000    359.00891    23.687281    142820.46    1.1653085 
  764000    374.64828    23.931161    142688.46    1.1663865 
  765000    379.09471   -24.936513     144601.7    1.1509539 
  766000    395.30779   -34.779587    145921.92    1.1405407 
  767000    353.61922    14.925884    145651.38    1.1426592 
  768000      367.174   -68.369448    146130.33    1.1389141 
  769000    368.51113   -54.138547    146559.56    1.1355785 
  770000      395.032    140.88837    142453.75    1.1683083 
  771000    361.18814    108.21477    142594.68    1.1671536 
  772000    331.04869   -82.279589    148729.06    1.1190139 
  773000    376.68338   -48.693556     147770.6     1.126272 
  774000    364.41439     18.93184     145720.8    1.1421149 
  775000    359.12389   -117.14104    148751.34    1.1188463 
  776000     402.2133    132.42344    146204.21    1.1383386 
  777000    367.39641   -102.08182    152093.27     1.094262 
  778000    341.84076   -45.935033    149339.43    1.1144404 
  779000    378.59955    -43.69506    149845.14    1.1106793 
  780000     363.7153   -26.893357    147430.47    1.1288704 
  781000    353.38031    5.9152421    147118.63    1.1312632 
  782000    379.62815   -12.117469    146615.18    1.1351478 
  783000    370.33824    19.042999    145436.59    1.1443468 
  784000    364.04394   -25.721332    146479.52    1.1361991 
  785000    385.23788   -17.947421    147880.35    1.1254362 
  786000    373.75455   -32.881294     148624.2    1.1198035 
  787000     375.7188   -50.545035    148105.73    1.1237235 
  788000    379.95954    61.954341    145430.88    1.1443917 
  789000    368.66063    -44.62808    149126.85     1.116029 
  790000    379.38775   -64.172137    149073.71    1.1164268 
  791000    347.64949    29.117135    146811.58    1.1336292 
  792000    395.06363    25.898757    148458.91    1.1210502 
  793000    376.07967    20.144538    147958.24    1.1248437 
  794000    374.03691   -1.8606219    147905.41    1.1252455 
  795000    376.73315   -21.533976    148107.26    1.1237119 
  796000    406.48924   -22.266318    148185.62    1.1231177 
  797000    369.80128    47.223908     146184.7    1.1384905 
  798000    370.78831    95.490293     145936.8    1.1404244 
  799000    402.85784    57.038161    144275.33    1.1535575 
  800000    381.33243   -86.724631    149543.61    1.1129188 
  801000    364.52493   -75.293643    147961.25    1.1248208 
  802000    373.84618   -41.982295    147844.12     1.125712 
  803000    377.91012    40.955792    145129.66    1.1467669 
  804000     362.4589    29.501659    144781.42    1.1495252 
  805000    363.66859   -4.8734259    147028.73    1.1319549 
  806000    387.75735   -16.480066    148149.79    1.1233893 
  807000    360.89447   -14.938546    149508.85    1.1131775 
  808000    372.77459    10.683939    146527.63     1.135826 
  809000    344.64865   -21.071121     144425.2    1.1523604 
  810000    377.74959    14.727295    143514.84    1.1596702 
  811000    376.12403    8.6815572    142582.69    1.1672517 
  812000    344.17898   0.80504711    143562.47    1.1592855 
  813000    376.73731    17.124687    146317.69    1.1374557 
  814000    386.35743    13.688816     148041.6    1.1242103 
  815000    364.12748   -18.194394    147153.02    1.1309988 
  816000    339.56016   -18.165416    145407.85    1.1445729 
  817000    346.34759   -23.395878    145060.63    1.1473126 
  818000    403.69096   -11.582751    145940.46    1.1403958 
  819000    370.53683   -13.239033    145894.13     1.140758 
  820000    378.64989   -11.575406    144581.61    1.1511139 
  821000    359.56064    6.0826133    145439.36     1.144325 
  822000    379.00232    26.098372     145293.7    1.1454722 
  823000     367.3468     78.86784    143795.36    1.1574079 
  824000    377.54702    16.978669     144076.8     1.155147 
  825000    341.42287   -18.882054    145217.34    1.1460745 
  826000     413.6672   -110.47005     146175.5    1.1385621 
  827000    360.18183     -35.0726    143614.49    1.1588656 
  828000    383.74774   -14.507984    144507.81    1.1517017 
  829000    349.27603   -43.260992    146145.49    1.1387959 
  830000    382.32561    19.828134    146761.27    1.1340178 
  831000    358.88987    48.344915    144058.81    1.1552913 
  832000    384.05172    36.286142    146170.43    1.1386016 
  833000    365.74464   -58.280849    146824.45    1.1335298 
  834000    374.92485   -77.689184     148845.6    1.1181378 
  835000    367.06003    96.883723    147370.72    1.1293281 
  836000    362.30087    63.288735    146844.24     1.133377 
  837000    386.43113    27.979777    146763.29    1.1340022 
  838000    408.01432    120.35093    145139.98    1.1466854 
  839000     357.2883   -99.308478    150337.72    1.1070401 
  840000    401.37184    108.66599    145780.16    1.1416498 
  841000    370.66584   0.24843151    147259.97    1.1301774 
  842000    347.77595   -53.725218    150675.45    1.1045588 
  843000      383.555    94.848571    146411.92    1.1367236 
  844000    390.83632    98.656163     147266.4    1.1301281 
  845000    347.55642   -96.812599    151357.75    1.0995796 
  846000    383.35377    -99.53473    151724.92    1.0969186 
  847000    392.58057    137.60602    144130.37    1.1547177 
  848000    363.02709    139.34357    144049.38    1.1553669 
  849000    373.19931   -2.0186764    145611.28    1.1429739 
  850000    375.84866    150.90509    143276.88    1.1615963 
  851000    353.51647   -108.21994    151295.76    1.1000301 
  852000      381.734    48.893362    145957.99    1.1402588 
  853000    383.82073    46.182931    146455.23    1.1363875 
  854000    350.11704   -41.917936    150699.59    1.1043818 
  855000    383.98181   -6.2705292    150319.93    1.1071712 
  856000     350.4176    -2.181599    148930.41     1.117501 
  857000       374.39   -21.545457    148025.82    1.1243301 
  858000    348.43795   -30.756749    148728.81    1.1190158 
  859000    378.06605    52.660269    147566.24    1.1278317 
  860000    374.83019     125.1678    146261.45    1.1378931 
  861000    376.73105    96.695001     148620.6    1.1198305 
  862000    366.75833    -12.80406    151547.91    1.0981999 
  863000    387.28649    27.231145    151019.91    1.1020394 
  864000    368.83515    12.941915    150772.48     1.103848 
  865000    382.61805    13.212144    148752.97    1.1188341 
  866000     345.8419      17.8524    147145.62    1.1310557 
  867000    385.82215    33.416705    148209.46    1.1229371 
  868000    373.20344    15.902577    149695.72    1.1117879 
  869000    373.36131   -64.899694    148512.16    1.1206483 
  870000    351.16344   -29.005374    148636.36    1.1197118 
  871000    389.98263    24.013667    146066.43    1.1394123 
  872000    338.89453    17.796421    145403.45    1.1446076 
  873000    382.59216     26.31792    145473.82    1.1440539 
  874000    336.40803   -33.223136    147820.47    1.1258921 
  875000    396.47305   -34.625152    149921.51    1.1101135 
  876000    346.39191   -16.586495    150542.76    1.1055323 
  877000    395.58486    101.22237    148785.21    1.1185916 
  878000    346.35592   -44.587833    153509.49    1.0841668 
  879000    380.45981    35.430438    149892.32    1.1103297 
  880000    370.36632    24.191914    148973.92    1.1171747 
  881000    386.42796   -22.691465    148262.02    1.1225389 
  882000    372.98352    21.021727    144276.38    1.1535491 
  883000    379.66455   -30.485726    145442.58    1.1442997 
  884000    377.40014     69.52559    146264.93     1.137866 
  885000    402.60493    2.3307926    149308.18    1.1146736 
  886000    372.64609     37.81256    146833.72    1.1334582 
  887000    392.81059    25.669622    146477.58    1.1362141 
  888000    362.01598   -4.3300819    146870.76    1.1331724 
  889000    382.46972    71.187298    146364.63    1.1370909 
  890000    375.69961   -25.687017    147878.59    1.1254495 
  891000    397.85072    29.695714    144864.03    1.1488696 
  892000    355.58078   -9.2296292     145103.5    1.1469737 
  893000    396.48835    145.58449    140390.66    1.1854769 
  894000    335.22678     58.28086    141585.97    1.1754688 
  895000    376.61373    15.313914    143753.32    1.1577464 
  896000    378.40283   -57.443507    144324.67    1.1531631 
  897000    378.49705      126.339    139556.88    1.1925595 
  898000    387.00718    21.835155    143480.96    1.1599441 
  899000    405.82196    34.151769    142677.97    1.1664722 
  900000    368.47906   -92.919387    146496.75    1.1360654 
  901000    380.31685   -56.654232    146039.52    1.1396223 
  902000    352.61593   -21.844137    147492.33    1.1283969 
  903000     376.9181   -48.046126    147417.52    1.1289695 
  904000     345.9433   -119.21114    150412.68    1.1064884 
  905000    391.99498    4.4614565    148259.45    1.1225584 
  906000    355.36044    32.646372    148426.01    1.1212987 
  907000    368.16171     125.1963    146487.64     1.136136 
  908000    357.68936   0.30764116    146460.64    1.1363455 
  909000    390.22351   -36.117349    145441.85    1.1443054 
  910000    374.20479   -71.304213    146318.97    1.1374457 
  911000    385.94123     1.311059    145001.16    1.1477831 
  912000    379.45305    8.0493776    145996.83    1.1399555 
  913000    376.65255   -29.623996    146763.43    1.1340011 
  914000    359.86519   -52.913848    144194.96    1.1542005 
  915000     375.8012   -6.9464796    142822.75    1.1652897 
  916000    390.39853   -95.726361    146997.17    1.1321979 
  917000    365.16275    31.021207    144857.06    1.1489249 
  918000    391.87802    79.918702    143636.93    1.1586845 
  919000    357.40952   -45.761753    145036.77    1.1475014 
  920000    371.53048    -24.21803    144615.69    1.1508425 
  921000    381.81631    127.84371     144552.6    1.1513449 
  922000    357.06481   -29.238762    148818.39    1.1183422 
  923000    374.98271   -23.177996    149345.31    1.1143965 
  924000    373.23683    29.205782    148477.99    1.1209061 
  925000    411.17324   -9.9250249    149114.48    1.1161216 
  926000    359.94379   -69.477952    149760.78    1.1113049 
  927000    365.35796    60.971532    147759.76    1.1263547 
  928000    385.55113    30.547493    146977.52    1.1323493 
  929000     362.2822    115.07788    143934.22    1.1562913 
  930000    380.91247    22.460463       144939    1.1482754 
  931000    354.05039   -34.891932    145502.96    1.1438248 
  932000    373.67649    -98.51167    146634.14     1.135001 
  933000    357.83841   -33.676074       146019    1.1397824 
  934000    393.10028   -19.377388    146021.89    1.1397599 
  935000    381.96351   -83.456219    146254.29    1.1379488 
  936000    345.90545    10.391119    145299.84    1.1454238 
  937000    378.36464    5.6592258    146397.84     1.136833 
  938000    390.12009    107.30892    144320.53    1.1531962 
  939000    394.47977    32.421891    146200.78    1.1383652 
  940000    351.18467   -47.290482    149907.51    1.1102172 
  941000    387.31814    53.291725    148029.04    1.1243057 
  942000    377.68729   -21.264734    148317.39    1.1221198 
  943000    354.50442   -35.420952     148328.4    1.1220366 
  944000    393.81543    -65.11537    147227.99    1.1304229 
  945000    354.30134    54.120133    145481.21    1.1439958 
  946000    372.95687   -17.308152    148124.99    1.1235774 
  947000     386.0115   -21.396066    146440.03    1.1365054 
  948000    359.47199   -41.241027    147409.07    1.1290343 
  949000    386.55755   -79.295285    144907.28    1.1485268 
  950000    379.67828    4.5436191    144134.27    1.1546865 
  951000     364.7878   -18.072112     145236.8    1.1459209 
  952000    374.18059    31.945136    143714.76    1.1580571 
  953000    385.64247   -23.564269    145308.51    1.1453554 
  954000    370.21234    148.80035    142422.78    1.1685623 
  955000    385.93544   -4.8839593    144316.55     1.153228 
  956000    362.30865    19.647012    143482.25    1.1599337 
  957000     374.9075    8.3580495    143916.13    1.1564367 
  958000    352.15474   -74.535069     144645.2    1.1506077 
  959000    372.71908   -48.372891    146862.78     1.133234 
  960000     379.8316     37.39367    144475.24    1.1519613 
  961000    370.78627    22.233944    144798.33     1.149391 
  962000    379.37986   -11.430725    146264.73    1.1378675 
  963000    364.88521     33.77679     146004.1    1.1398988 
  964000    357.68921   -87.380766    148955.24    1.1173148 
  965000    404.49899   -4.2624481    147220.15    1.1304831 
  966000    366.68849   -19.782585    146689.35    1.1345738 
  967000    374.30136   -45.898935    147301.37    1.1298598 
  968000    372.26925   -122.05333    148589.94    1.1200616 
  969000    381.16868   -38.867013    146843.98    1.1333791 
  970000    348.49525   -21.658945    146177.48    1.1385467 
  971000     375.8263   -48.603243    148411.33    1.1214096 
  972000    375.72593    60.649213     145115.1    1.1468819 
  973000    372.15891   -12.247047    147047.43    1.1318109 
  974000    362.73697   -12.217098    146113.31    1.1390468 
  975000    376.25771   -118.17564    148701.62    1.1192205 
  976000    402.68045   -28.135314    148590.23    1.1200594 
  977000    392.80561   -30.298997    147281.18    1.1300146 
  978000    363.68943   -109.65059    148893.93    1.1177749 
  979000    346.80487    58.927422    143971.61     1.155991 
  980000     368.0855   0.51461799     144762.8    1.1496731 
  981000    382.68299    65.824741    142975.39    1.1640458 
  982000    374.70296    73.500377    141237.41    1.1783698 
  983000    368.58426   -17.204901    144951.33    1.1481778 
  984000    379.01725   -82.939699    146590.53    1.1353386 
  985000    357.11308   -59.824918    146639.31     1.134961 
  986000    363.55737    6.3327228    145111.75    1.1469084 
  987000    346.73603   -76.938604     145568.4    1.1433106 
  988000    379.78441   -62.633534    146902.69    1.1329261 
  989000    360.44664   -20.699912    142791.87    1.1655418 
  990000     373.0446   -76.939777    147304.93    1.1298325 
  991000    370.84253    60.404869     144768.7    1.1496262 
  992000    400.61536   -18.877462    147161.07     1.130937 
  993000    372.31566    117.47016    143560.12    1.1593045 
  994000    374.92731    23.130289    145682.02    1.1424189 
  995000    372.52616   -3.8368289    147159.27    1.1309508 
  996000    340.65569   -101.57236    149201.88    1.1154678 
  997000    399.43175    23.294296    147332.99    1.1296173 
  998000     365.9902   -14.773823    147784.56    1.1261656 
  999000    371.92708    72.196493    145176.42    1.1463975 
 1000000    341.50028   -13.831126    145628.61    1.1428379 
 1001000    401.01785     63.17744    142858.34    1.1649995 
 1002000    350.59577      54.8638    142269.03    1.1698252 
 1003000     377.1231   -18.065066    143642.18    1.1586422 
 1004000    336.82969   -31.563148    143612.47    1.1588819 
 1005000    401.79393    143.36514    142002.83    1.1720181 
 1006000    360.29564   -11.822648    144711.42    1.1500813 
 1007000    365.91725     21.77322    143749.83    1.1577746 
 1008000    390.56038    55.936713    144448.43    1.1521751 
 1009000    349.39958   -53.963716     145916.2    1.1405854 
 1010000    397.32813     37.73786     144179.1    1.1543274 
 1011000    374.08404    17.718534    144620.92    1.1508009 
 1012000    350.09183   -16.463343    145306.77    1.1453691 
 1013000     359.4717   -55.388145    147416.48    1.1289775 
 1014000    368.13849    88.343999    144581.47    1.1511149 
 1015000    351.77249   -19.035003    145242.52    1.1458758 
 1016000    396.66154    28.200002    143807.81    1.1573078 
 1017000    348.99413    50.758915    145803.12      1.14147 
 1018000    384.96657    23.468504    145594.06    1.1431091 
 1019000    377.48844    24.264505    144489.65    1.1518465 
 1020000    370.57941   -6.4147027    144453.49    1.1521348 
 1021000    383.99783    43.256149    141350.07    1.1774305 
 1022000    362.58263    109.90983    142322.57    1.1693851 
 1023000    395.67453    -82.43884    148744.52    1.1188976 
 1024000    366.03222   -19.646962    145388.57    1.1447247 
 1025000    391.46955   -24.442007    144893.21    1.1486383 
 1026000    367.43197    16.205442     145389.2    1.1447198 
 1027000    368.89169   -68.444118    147462.44    1.1286256 
 1028000    352.81214    5.7683724    145735.27    1.1420015 
 1029000    365.23815    30.701931    148602.73    1.1199652 
 1030000    378.82928   -5.1805837    147441.79    1.1287837 
 1031000    361.30022    49.641403    145937.25    1.1404209 
 1032000    349.81598   -122.79636    148511.05    1.1206566 
 1033000    370.52335    82.192623    142395.13    1.1687892 
 1034000    368.32883   -27.858781    145573.15    1.1432733 
 1035000    388.03925    29.207184    142956.54    1.1641992 
 1036000    369.95854    40.280851     143692.2    1.1582389 
 1037000    395.79642    145.07688    142609.73    1.1670304 
 1038000    385.02596    28.855841    144797.73    1.1493958 
 1039000    389.09566   -27.567045    146181.36    1.1385165 
 1040000    391.97108    77.960614    143758.07    1.1577081 
 1041000    354.26956   -20.262125     145065.1    1.1472772 
 1042000    388.72358    22.150408    143513.39     1.159682 
 1043000    350.11217   -44.727335    144141.95     1.154625 
 1044000    381.56361    58.001004    144064.93    1.1552423 
 1045000    369.76473     1.754807    145837.25    1.1412029 
 1046000    371.88143     45.77994    144771.47    1.1496042 
 1047000    404.98383   -120.04473    150090.06    1.1088669 
 1048000    352.55417    -8.838837    146778.65    1.1338835 
 1049000    368.04218   -1.8483353    145863.74    1.1409956 
 1050000    376.22324   -96.166723    147249.64    1.1302567 
 1051000    362.75883    47.368309    143553.33    1.1593593 
 1052000     382.8299    27.368973    144640.83    1.1506426 
 1053000    345.84364   -26.614693    146170.92    1.1385978 
 1054000    368.56546   -79.123734    148171.05    1.1232282 
 1055000    374.37539    45.853702    145394.38     1.144679 
 1056000    388.43883   -24.059348    146561.46    1.1355638 
 1057000    360.72913   -1.2225987       145637     1.142772 
 1058000    364.97514    -71.43378    147538.36    1.1280449 
 1059000    382.95403   -104.60865    148383.83    1.1216174 
 1060000    344.47053   -12.233437    147844.08    1.1257122 
 1061000    399.51743    4.0165329    146980.53    1.1323261 
 1062000    361.58692    26.137605    145578.79     1.143229 
 1063000    381.09185   -121.44697     149650.2    1.1121261 
 1064000    358.03275     3.746036    146945.86    1.1325933 
 1065000    383.93547    26.716497    147094.65    1.1314476 
 1066000    365.29809   -6.1185464    146950.03    1.1325611 
 1067000    361.27218    99.355891    144086.46    1.1550696 
 1068000    400.98317   -18.641657    147592.67    1.1276298 
 1069000    342.71136    15.232023    146924.01    1.1327617 
 1070000    405.96502    18.669996    148331.63    1.1220122 
 1071000    361.46578    28.676769    143911.64    1.1564727 
 1072000    405.06839    52.082215    146798.92    1.1337269 
 1073000    369.86143    113.42701    144457.62    1.1521019 
 1074000    394.68602    48.474439    146966.02    1.1324379 
 1075000    354.11109   -19.604685    148531.68    1.1205009 
 1076000    373.62858   -22.223619    150650.75    1.1047399 
 1077000    399.93015   -92.132587    153037.04    1.0875138 
 1078000     357.9561    38.720394    148194.43    1.1230509 
 1079000    374.97306   -28.038594    148528.09     1.120528 
 1080000    365.40658    27.352038    147497.95    1.1283539 
 1081000    379.93439    17.102265    146520.95    1.1358778 
 1082000    366.96764    66.897014    145146.71    1.1466322 
 1083000    384.71707      6.59554    146183.67    1.1384985 
 1084000    351.73634   -32.015447    146760.44    1.1340242 
 1085000    393.74359    68.282129    145854.78    1.1410657 
 1086000    392.45445   -73.431538    148972.55     1.117185 
 1087000    347.62352   0.60298757    146632.01    1.1350175 
 1088000      388.527     22.26482    147673.08    1.1270158 
 1089000    354.34808   -30.249232    148330.13    1.1220235 
 1090000     385.2994   -66.794645    148962.49    1.1172604 
 1091000    351.63014   -116.09908    148960.92    1.1172722 
 1092000    379.43457    62.152096    145580.64    1.1432145 
 1093000    376.51481    24.908923    146309.17     1.137522 
 1094000    366.69931   -19.010811    149822.87    1.1108444 
 1095000    362.29847    -13.91622    148977.83    1.1171454 
 1096000    388.70357   -44.485004    148344.24    1.1219168 
 1097000    355.53709   -90.766366    146338.51    1.1372939 
 1098000    378.76881    -90.21695    147285.19    1.1299839 
 1099000    358.69222   -24.152667    145171.96    1.1464328 
 1100000    376.84206    29.786848    143914.74    1.1564479 
 1101000    378.06632    22.345435    144022.38    1.1555836 
 1102000    363.45351    18.501908    145410.58    1.1445514 
 1103000    376.32146    33.390613    147899.78    1.1252883 
 1104000    374.67715    26.936844    148260.03     1.122554 
 1105000    378.73539    138.68956    146716.78    1.1343617 
 1106000    374.69646    60.551042     147268.7    1.1301104 
 1107000    368.09557    43.959007    149667.39    1.1119984 
 1108000    378.36197     12.04498     148382.1    1.1216305 
 1109000     380.0187    22.514412    149238.17    1.1151965 
 1110000    360.22073    9.5254117    148436.96     1.121216 
 1111000    368.82719   -51.223015     150098.3     1.108806 
 1112000    379.14683    129.32905    146556.67    1.1356009 
 1113000    363.26519    -83.89198    149071.05    1.1164468 
 1114000    373.85745   -40.713461    149330.39    1.1145079 
 1115000    354.74133    6.1887471    148759.01    1.1187887 
 1116000    351.30283    11.172006    148845.76    1.1181366 
 1117000    356.59767    26.111831    148830.78    1.1182491 
 1118000     366.5701    65.755216    148166.29    1.1232642 
 1119000    380.69094    142.10526    145204.91    1.1461726 
 1120000    368.74066    52.769779    146712.33    1.1343961 
 1121000    373.30136    16.617015    146648.07    1.1348932 
 1122000    398.62694   -12.757897    147047.74    1.1318086 
 1123000    349.82812     -3.23214     145262.1    1.1457213 
 1124000     388.1008   -49.875952    147757.77    1.1263698 
 1125000    344.85554    -97.97241    147829.99    1.1258195 
 1126000    405.55969    107.37004    144781.15    1.1495274 
 1127000      361.164   -36.437223    145518.22    1.1437048 
 1128000    382.31343    27.036344    143304.47    1.1613726 
 1129000     368.9576   -28.433024    144593.61    1.1510183 
 1130000    379.51074   -3.5874378    143442.47    1.1602553 
 1131000    417.34651    29.862203    144310.53    1.1532761 
 1132000    366.67594     46.41328    143488.11    1.1598863 
 1133000    371.99505    28.635623     144927.2    1.1483689 
 1134000    370.97582    26.954264    147007.64    1.1321173 
 1135000    375.62724    18.737102    145941.23    1.1403898 
 1136000    383.58188   -8.5562644    148236.41    1.1227329 
 1137000     360.0624   -25.028611    147584.55    1.1276919 
 1138000    382.60898   -45.725602    149403.99    1.1139588 
 1139000    364.41139  0.062415937    148387.37    1.1215907 
 1140000    355.15824   -95.459129     150180.3    1.1082006 
 1141000    397.30143    26.348571    146327.34    1.1373807 
 1142000     350.8521    36.516178    143876.62    1.1567542 
 1143000      388.486   -1.5469972    147650.21    1.1271903 
 1144000    359.43748    23.962298    147394.27    1.1291477 
 1145000    390.26825    25.222544    147981.81    1.1246645 
 1146000    364.85849   -5.0613851    147447.32    1.1287414 
 1147000    399.75238    43.020564    148094.92    1.1238055 
 1148000    359.21841    73.721883    148076.17    1.1239479 
 1149000    338.64028    1.7793316    148760.99    1.1187738 
 1150000     374.1078    -24.27272    146391.46    1.1368825 
 1151000    380.18676    39.689391    145799.22    1.1415006 
 1152000    374.73018    24.493824    147924.38    1.1251011 
 1153000    371.98534   -18.382926    149507.73    1.1131859 
 1154000     375.8895   -3.8853717    149560.62    1.1127922 
 1155000    384.50489    54.062511    145884.02     1.140837 
 1156000    393.59111   -123.83741    149382.18    1.1141214 
 1157000    350.85168   -79.653131    148168.38    1.1232484 
 1158000    384.11061   -12.282246    149114.78    1.1161194 
 1159000    365.47687    22.985453     147210.2    1.1305595 
 1160000    379.40448   -21.138965    148462.04    1.1210266 
 1161000    363.14872   -24.540241    148599.84     1.119987 
 1162000    382.24426    53.489838    147211.89    1.1305466 
 1163000    397.48474    38.723001    146070.19     1.139383 
 1164000    363.53241   -4.9615034    146721.02    1.1343289 
 1165000    381.22691   -36.633006     147359.5    1.1294141 
 1166000     385.5358    89.818948    147371.32    1.1293235 
 1167000     366.5773    101.76627    144872.15    1.1488053 
 1168000    393.04617    52.958414     145545.3    1.1434921 
 1169000     389.1666     24.71662       145813    1.1413926 
 1170000    347.81009   -7.1985532     145459.8    1.1441641 
 1171000    402.65616    7.2198811     145065.9    1.1472709 
 1172000    334.91778     81.60001    143515.19    1.1596675 
 1173000    405.44282    121.97345    142065.28    1.1715029 
 1174000    356.38871    26.851806    142903.57    1.1646308 
 1175000    362.80692    6.0377523    141836.72    1.1733907 
 1176000    375.63337    6.0412849    143329.82    1.1611673 
 1177000    364.85983   -4.0874467    145557.76    1.1433942 
 1178000    380.25948   -23.287746    146832.19    1.1334701 
 1179000    365.47737    12.757517    147060.84    1.1317077 
 1180000    398.15571     23.64615    148720.87    1.1190756 
 1181000    378.69505   -7.1470677    146731.79    1.1342456 
 1182000     364.8673   -13.849367    148481.21    1.1208818 
 1183000    393.90349   -6.8415586     147044.3     1.131835 
 1184000     358.8946   -43.480395    146829.28    1.1334925 
 1185000    379.00096    31.323381    146327.74    1.1373776 
 1186000    383.66334    21.332466    144880.65    1.1487379 
 1187000    370.08926    11.665403    143103.96    1.1629999 
 1188000    416.13332   -45.784421    143278.93    1.1615797 
 1189000    364.50716   -86.339919    145448.22    1.1442553 
 1190000    392.81327   -37.576355       146406    1.1367696 
 1191000    364.15318   -59.753804    148783.29     1.118606 
 1192000    381.22962    14.264208    144806.54    1.1493258 
 1193000    390.52391    24.457002    145268.98    1.1456671 
 1194000     372.4584    32.270624    146879.16    1.1331076 
 1195000    387.02058   -66.492025    148030.32    1.1242959 
 1196000    397.64438    35.612363    145251.69    1.1458034 
 1197000    366.81332   -70.343784    148144.93    1.1234262 
 1198000    349.25247    138.08436    148043.26    1.1241977 
 1199000    394.00255    87.340157    148121.13    1.1236067 
 1200000    356.80896    35.187567    147734.48    1.1265474 
 1201000    394.23833   -24.248774    150316.96     1.107193 
 1202000    350.86212   -30.212317    150959.37    1.1024813 
 1203000    387.04232   -23.300654    148903.11    1.1177059 
 1204000    372.89468   -5.1542716    147344.11     1.129532 
 1205000    375.24699    9.1777204    145380.16    1.1447909 
 1206000    343.06281  -0.73020958    145561.88    1.1433618 
 1207000    377.09249    21.947597     145287.9    1.1455179 
 1208000    373.66269   0.52559459    144160.57    1.1544758 
 1209000     372.4358   -9.0371594    145569.27    1.1433037 
 1210000    390.84119    26.052238    143463.53     1.160085 
 1211000    379.47974    35.308178    143323.68     1.161217 
 1212000    392.79553   -29.267388    147360.33    1.1294077 
 1213000    360.95087    85.742955    143552.89    1.1593629 
 1214000    415.72048     3.846541    145299.92    1.1454231 
 1215000     349.3218    133.04598       142671    1.1665293 
 1216000    381.10859    135.01813    141322.53      1.17766 
 1217000    358.71142   -120.27205    146385.14    1.1369316 
 1218000    361.65392   -73.536056    145268.03    1.1456746 
 1219000    385.36605    144.14187       140479    1.1847315 
 1220000    365.83734   -110.42662    146651.24    1.1348687 
 1221000    376.25076    44.636328    145237.28    1.1459171 
 1222000    365.84939    78.498783    144670.15    1.1504093 
 1223000    374.71536    51.588507       146510    1.1359627 
 1224000    369.19133   -92.046185    146742.76    1.1341608 
 1225000    366.59714    155.17296    140398.47     1.185411 
 1226000    380.61806    27.469971    143115.23    1.1629083 
 1227000    362.46787   -78.763586    146340.65    1.1372772 
 1228000    387.82836   -50.485856    145654.89    1.1426317 
 1229000    355.47474   -37.940363    145406.52    1.1445834 
 1230000    372.12297    29.693969    148335.64    1.1219818 
 1231000    368.20112    7.1522936    147745.35    1.1264645 
 1232000    377.97467   -17.544961    150380.92    1.1067221 
 1233000    387.53061    7.8892282    150407.51    1.1065265 
 1234000    362.40695   -17.248038    147822.28    1.1258782 
 1235000    364.90084    11.094185    145633.12    1.1428025 
 1236000     384.5229   -18.402961    145365.48    1.1449066 
 1237000    399.14123   -10.518859     145948.8    1.1403307 
 1238000    363.04259   -5.6365501    145458.65    1.1441732 
 1239000    399.44991    14.685693    147260.99    1.1301696 
 1240000    344.47698    4.4137982    146766.28    1.1339791 
 1241000     360.9873    21.895824    147892.45    1.1253441 
 1242000    388.33265    10.745152    149059.05    1.1165366 
 1243000    367.10034    2.9626156    147864.43    1.1255574 
 1244000    405.54913    16.322268    145918.05    1.1405709 
 1245000     355.6717   -14.337514    148165.39    1.1232711 
 1246000    380.11805    48.807732    147846.15    1.1256965 
 1247000    384.63189   -61.656182    150133.03    1.1085495 
 1248000    354.38116   -67.603662    149103.81    1.1162014 
 1249000     367.3138   -68.743926    148666.06    1.1194881 
 1250000    361.40062   -80.766955    148150.34    1.1233851 
 1251000    386.22894    92.086634     144673.4    1.1503835 
 1252000     363.8844    67.251094    145281.49    1.1455685 
 1253000    384.00653    146.53591    144739.42    1.1498588 
 1254000    360.95866    -41.91783    146857.98     1.133271 
 1255000    368.91867   -106.01129    149321.72    1.1145725 
 1256000    379.37904   -82.100486     147251.7    1.1302409 
 1257000    372.82393    69.267955    144267.14     1.153623 
 1258000    372.43369    52.966816     145580.8    1.1432132 
 1259000    372.52152   -44.380837    150091.45    1.1088566 
 1260000    355.59172    52.444033    148336.76    1.1219733 
 1261000    387.65589    52.981437    148582.32    1.1201191 
 1262000    365.39713   -54.094412    148097.12    1.1237889 
 1263000    374.79844    6.0113342    147279.03    1.1300311 
 1264000    402.40019   -15.836692    149968.52    1.1097655 
 1265000    368.53133    30.306933    147239.86    1.1303318 
 1266000    357.48211   -53.488515     147622.6    1.1274012 
 1267000    378.34154    60.200814    145423.78    1.1444475 
 1268000    369.12784   -37.510645    146823.98    1.1335335 
 1269000    355.32108   -42.276445    146947.75    1.1325787 
 1270000    390.32767    42.546599    144879.65    1.1487458 
 1271000    378.86554    -80.43013    146051.15    1.1395315 
 1272000    377.24017   -7.6757629    145683.16      1.14241 
 1273000     369.9898   -58.100603    147136.76    1.1311238 
 1274000    364.91215   -51.684962    147959.83    1.1248316 
 1275000    360.78874    -47.08997    145739.94    1.1419649 
 1276000    386.16444   -0.6761468    143281.73    1.1615569 
 1277000     357.4913    10.185338    142405.12    1.1687072 
 1278000    384.01362    20.845877    143224.71    1.1620194 
 1279000    371.69894     -24.7729    142525.38    1.1677211 
 1280000    358.87036   -20.268153    143798.71    1.1573809 
 1281000    372.85158   -19.472859    145307.11    1.1453665 
 1282000    346.06091    1.6621595    145022.46    1.1476146 
 1283000    386.18664    15.696538     146374.7    1.1370127 
 1284000    369.45592    25.525663    146941.22     1.132629 
 1285000    389.55915   -29.133017     148202.4    1.1229905 
 1286000    337.07372   -41.681097    149210.81     1.115401 
 1287000    356.41735    26.817306    146888.44     1.133036 
 1288000    377.08225   -45.733841    145731.67    1.1420297 
 1289000    388.02979    77.575661    142278.69    1.1697457 
 1290000     395.1416   -123.84576    147114.95    1.1312915 
 1291000    372.06318    97.541789     143140.9    1.1626998 
 1292000    392.82357   -56.325102    147876.33    1.1254667 
 1293000     351.9432    21.104527    145013.79    1.1476832 
 1294000    380.13266    -14.79791    144762.74    1.1496735 
 1295000    359.67246   -10.534504    144467.56    1.1520226 
 1296000    381.62532   -9.8470945     146964.4    1.1324504 
 1297000    381.50681    113.32301    144970.83    1.1480233 
 1298000    383.50336    58.321189    147170.95     1.130861 
 1299000    362.39543    16.278492    146306.27    1.1375445 
 1300000    361.12361    18.798158    144322.78    1.1531782 
 1301000    412.09216     -40.8923    146645.05    1.1349166 
 1302000     343.4303   -69.680875    145419.42    1.1444819 
 1303000    380.80124   -19.806427    147645.04    1.1272299 
 1304000     366.3897   -14.557723    146875.61     1.133135 
 1305000    372.85415   -3.8766827    148549.25    1.1203685 
 1306000    344.18511    75.712432    146853.75    1.1333036 
 1307000    355.45202     43.33848    145561.26    1.1433667 
 1308000    382.84653   -6.1137586    145777.25    1.1416726 
 1309000    373.03304   -0.3482076     145016.9    1.1476586 
 1310000    384.79712    24.969663     142630.4    1.1668613 
 1311000    352.92594    95.756327     143721.8    1.1580003 
 1312000    385.40128   -12.413048    146736.83    1.1342066 
 1313000    371.65038    -1.138655    148781.15    1.1186222 
 1314000    388.34021  -0.32146025    148406.86    1.1214434 
 1315000    367.61458    54.044705    149287.65    1.1148269 
 1316000     371.3286   -27.233299    151317.34    1.0998732 
 1317000    359.11798    14.146621    148953.33    1.1173291 
 1318000    375.78406    6.7172289    147980.75    1.1246726 
 1319000    362.62229   -19.680485    148193.43    1.1230585 
 1320000    390.01056    2.6327666    148519.13    1.1205956 
 1321000    372.73669   -23.157978    147995.73    1.1245588 
 1322000    355.23278   -84.573044    150105.76    1.1087509 
 1323000    377.66207    7.3432531    148204.79    1.1229724 
 1324000    365.97424    -13.55498       149249    1.1151156 
 1325000    384.01961   -42.538623    148410.36    1.1214169 
 1326000    374.26633    154.44915    142908.62    1.1645896 
 1327000    351.38404     -30.9852    147176.96    1.1308148 
 1328000    412.52664    4.9932192     148472.2    1.1209498 
 1329000    365.20433    12.686236    147742.66     1.126485 
 1330000    370.88429  0.065990703    147197.13    1.1306599 
 1331000     368.3024   -141.80606    149169.66    1.1157088 
 1332000    396.45263    79.030128    144532.86    1.1515021 
 1333000    360.75928    30.694702    146943.98    1.1326078 
 1334000     366.2615   -10.589708    147415.56    1.1289845 
 1335000    364.84343    -14.29247    147197.66    1.1306558 
 1336000    384.35147    5.5011423     144256.9    1.1537049 
 1337000    344.96521   -100.03966    146080.25    1.1393045 
 1338000     370.4812    94.111964    142997.94    1.1638622 
 1339000    363.24894   0.11991823    144421.15    1.1523928 
 1340000    379.76259    31.093294    144505.36    1.1517212 
 1341000    346.28631    3.2269774     144113.4    1.1548537 
 1342000    370.04274   -15.830048    144899.45    1.1485889 
 1343000    389.61252    22.389625     146846.6    1.1333588 
 1344000    357.51893    33.728687    145304.26    1.1453889 
 1345000    388.28318    112.50894    143737.64    1.1578728 
 1346000    375.46642    96.190288    142379.24    1.1689196 
 1347000    393.58289   -6.6533821    147474.43    1.1285339 
 1348000    353.46599   -14.494351       148619    1.1198427 
 1349000    370.64816   -16.229459    148066.08    1.1240244 
 1350000    361.59952    8.5416632    148694.16    1.1192766 
 1351000    367.02157   -23.845534    150342.47    1.1070051 
 1352000    384.45283    66.028583    146725.29    1.1342959 
 1353000    381.68513     133.1711    144481.47    1.1519117 
 1354000    352.31241    28.327692     145351.2    1.1450191 
 1355000    388.30435   0.89516416     146203.9     1.138341 
 1356000    358.95534   -17.660022    145276.03    1.1456115 
 1357000    362.60869   -5.5761802    144931.61    1.1483339 
 1358000    373.44399   -3.8201859    144724.56    1.1499768 
 1359000    400.63336   -3.7740065    145375.61    1.1448268 
 1360000    357.10071   -17.928013    143395.38    1.1606364 
 1361000     364.7864    36.033169    141993.28     1.172097 
 1362000    358.32995    41.529323    142228.47    1.1701588 
 1363000    336.18404   -10.098171    145800.76    1.1414885 
 1364000    369.25134   -13.635466    148705.11    1.1191941 
 1365000    393.58269   -13.678581    148709.08    1.1191643 
 1366000    368.48007   -2.9353247    148061.95    1.1240558 
 1367000     383.0404    70.887594    146908.47    1.1328815 
 1368000    396.38742    90.700122    146175.23    1.1385643 
 1369000    368.42251   -43.292311    149588.45    1.1125852 
 1370000    381.24308    6.7221713    148827.12    1.1182767 
 1371000    358.47915    18.671394    148681.01    1.1193756 
 1372000     378.5592   -13.314926    148928.83    1.1175129 
 1373000    396.01411    -35.33976    145011.79     1.147699 
 1374000    385.49112    70.444965    142285.23    1.1696919 
 1375000    387.76713    -8.231065    144493.95    1.1518122 
 1376000    363.24799   -34.466002    145984.38    1.1400527 
 1377000    382.18587   -6.1894639    145959.49    1.1402472 
 1378000    355.47851    17.699355    143120.63    1.1628645 
 1379000    359.53993    21.454817    145931.88    1.1404629 
 1380000    382.16448   -13.320854    147415.05    1.1289885 
 1381000    366.53443   -64.155569    147609.71    1.1274996 
 1382000     366.4586   -80.576572    147896.66     1.125312 
 1383000    382.34867    72.033695    144262.13     1.153663 
 1384000     378.5683    118.25751     143792.7    1.1574293 
 1385000    390.28941   -73.849839     148385.1    1.1216079 
 1386000    381.23497    16.163325    146771.69    1.1339373 
 1387000    369.99195    69.579078     143332.2    1.1611479 
 1388000    377.25747    45.485555    145606.96    1.1430078 
 1389000    361.14033    40.959962    145942.32    1.1403813 
 1390000     398.0361   -2.3094601    143763.64    1.1576633 
 1391000    368.46236   -24.233621     143989.9    1.1558442 
 1392000    389.82929    16.423441    142568.88    1.1673648 
 1393000    367.94181   -6.0149354    145808.35    1.1414291 
 1394000    379.63824   -7.4071831    145207.24    1.1461543 
 1395000    372.46168   0.61299294    143494.81    1.1598321 
 1396000    349.84452   -17.738816    146287.96    1.1376869 
 1397000    397.09774    57.035419    142359.28    1.1690835 
 1398000    363.57558   -64.545948    144763.19    1.1496699 
 1399000     356.0296   -25.816787    143773.46    1.1575842 
 1400000    392.59472    0.2280633    145092.51    1.1470606 
 1401000    332.09679    3.1834422    144159.73    1.1544825 
 1402000    401.66567    25.674105    144749.27    1.1497805 
 1403000    361.68835   -82.071899    145784.68    1.1416144 
 1404000    361.15304   -84.351705     143244.6     1.161858 
 1405000    377.06292   -31.879072    144511.46    1.1516726 
 1406000    352.52898    11.235851    144374.05    1.1527687 
 1407000    387.66491   -18.498592    143461.94    1.1600979 
 1408000    352.25405    27.220007    143312.58    1.1613069 
 1409000    392.47954   -24.277762    143960.18    1.1560828 
 1410000    363.83701   -53.400523    144177.34    1.1543415 
 1411000    397.20428    5.1092889    143567.02    1.1592488 
 1412000    359.90662     11.98722    144133.25    1.1546946 
 1413000    367.76197    7.6363802    143166.93    1.1624883 
 1414000    380.77772    18.051853    143503.79    1.1597596 
 1415000    385.57633    164.06803    141570.26    1.1755993 
 1416000    390.38318    39.519738    144024.39    1.1555674 
 1417000     366.6907   -3.8285828    144914.83    1.1484669 
 1418000    349.63111    5.0629457    147202.28    1.1306203 
 1419000    401.18313    -62.91316    149627.17    1.1122973 
 1420000    378.79546    111.38916    145875.98    1.1408999 
 1421000     378.3749   -34.624518    150356.85    1.1068993 
 1422000    360.86283    -5.247683    149956.08    1.1098576 
 1423000    370.41905    -10.73056     150497.4    1.1058655 
 1424000    367.81082   -53.494596    151153.65    1.1010643 
 1425000    368.66521   -35.676153    150958.53    1.1024875 
 1426000    385.42419   -4.8177603    149751.45    1.1113741 
 1427000    366.15792   0.31321917     148897.7    1.1177466 
 1428000    377.40884    -34.10014    151115.24    1.1013442 
 1429000    351.14858   -31.978135    150492.32    1.1059029 
 1430000     382.9213    28.826166    147097.52    1.1314255 
 1431000    365.03798  -0.68034665    148516.89    1.1206125 
 1432000    357.46833   -14.426398    147623.36    1.1273953 
 1433000    386.83549    134.81365    146398.52    1.1368277 
 1434000       339.32    27.544617    148139.01    1.1234711 
 1435000    400.41944    -14.43925     148686.5    1.1193342 
 1436000    380.63311   -49.386641    149240.47    1.1151793 
 1437000     383.2088    104.12649    146361.74    1.1371134 
 1438000    354.68716     34.31699    145336.26    1.1451367 
 1439000    400.42723    17.989461    145840.05     1.141181 
 1440000    353.11792    6.5651911    144328.04    1.1531362 
 1441000     398.7227    14.181308     144843.7    1.1490309 
 1442000    356.11903    85.120209    143633.28     1.158714 
 1443000    369.44385    45.710822    146656.25    1.1348298 
 1444000    376.63377    49.418487    146018.86    1.1397835 
 1445000    366.13942    30.709353    144303.16    1.1533351 
 1446000    395.35809    12.971729    144966.14    1.1480604 
 1447000    358.43594    19.998978    145171.09    1.1464396 
 1448000    372.58439   -9.3496318    146720.61     1.134332 
 1449000    404.72018    -20.98209     147000.3    1.1321738 
 1450000     363.0223   -95.612253       148545    1.1204005 
 1451000    372.23018    146.77867    143345.57    1.1610396 
 1452000    378.33607   -32.968621    147133.79    1.1311466 
 1453000    366.86242    25.635719    146718.11    1.1343514 
 1454000    382.20883    15.225516    148115.25    1.1236513 
 1455000    362.10181    17.822057    148660.61    1.1195292 
 1456000    375.50646    20.438431    147442.18    1.1287807 
 1457000     359.4185   -59.554339    148658.76    1.1195431 
 1458000    379.14951   -110.40573    149604.41    1.1124665 
 1459000    364.42536    -60.38753    146169.93    1.1386055 
 1460000    377.97259    -19.52388    146171.38    1.1385942 
 1461000     374.4546   -16.648676    145114.12    1.1468897 
 1462000    345.10062    10.244611    144713.82    1.1500622 
 1463000    378.11284    31.389394    147108.45    1.1313414 
 1464000    344.27472    30.614122    148526.19    1.1205424 
 1465000    381.85287    42.082673    147317.17    1.1297386 
 1466000    355.40967   -13.981791    147251.34    1.1302437 
 1467000    393.59924    12.184472    144758.86    1.1497044 
 1468000    367.74893   -21.210277     146122.1    1.1389782 
 1469000    378.02579    97.300956     143314.6    1.1612905 
 1470000     374.2467    120.60592    141683.81    1.1746571 
 1471000    380.00368   -25.419691     146657.3    1.1348217 
 1472000    387.31741   -2.8897972    142457.61    1.1682766 
 1473000    362.02847    19.598895    143191.76    1.1622868 
 1474000    395.61061    19.442574    145409.38    1.1445609 
 1475000    386.66795    19.120886    146371.12    1.1370405 
 1476000    399.69294    35.824722    147281.59    1.1300115 
 1477000    386.46108    114.07213    144495.35     1.151801 
 1478000    368.38693    -105.1541    146334.46    1.1373254 
 1479000    377.63816    33.577174    144466.28    1.1520328 
 1480000    367.57363    14.598177    144159.18    1.1544869 
 1481000    376.32832      18.1096    143942.86    1.1562219 
 1482000    371.13973   -25.841861    145352.35      1.14501 
 1483000    395.17861   -59.519049    145146.56    1.1466334 
 1484000    347.92997   -148.00458    145406.51    1.1445835 
 1485000    391.80605   -27.568213    143148.55    1.1626376 
 1486000    382.30442   -3.7345387    144535.68    1.1514796 
 1487000    391.82466    17.594354    146717.82    1.1343536 
 1488000    365.36812    13.554542    146830.72    1.1334814 
 1489000      364.656    63.335087    145429.96    1.1443989 
 1490000    374.65264    34.579846    147397.81    1.1291206 
 1491000    365.77741   -10.886738    148093.68    1.1238149 
 1492000    365.20027    6.5301976    148534.16    1.1204823 
 1493000    387.78567    20.483096     148458.2    1.1210556 
 1494000    357.66702    38.128112    148458.34    1.1210545 
 1495000    381.20181    127.42622    145205.36    1.1461691 
 1496000    386.54105    22.371883     145609.6    1.1429871 
 1497000     365.4265   -18.803901    146312.67    1.1374947 
 1498000    386.64023   -8.0034143    145496.91    1.1438723 
 1499000    370.19545    19.211701    142468.06    1.1681909 
 1500000    372.84749    103.59281     140785.1    1.1821556 
 1501000    394.44126    102.76812    141662.24     1.174836 
 1502000    353.30735   -59.541481    146829.91    1.1334877 
 1503000    361.95628    15.841445    145657.81    1.1426088 
 1504000    385.36391    13.630051    146430.16     1.136582 
 1505000    359.18564    19.431962    144453.26    1.1521367 
 1506000    389.12126   -23.911194    144870.56    1.1488179 
 1507000    360.98376    47.917634     143617.1    1.1588445 
 1508000    367.61174   -67.273155    146296.68     1.137619 
 1509000    355.55527   -120.01881    148728.81    1.1190158 
 1510000    357.18857   -41.683778    146013.38    1.1398263 
 1511000    370.04023     120.6909       145369    1.1448788 
 1512000    364.51547    74.069093    144916.52    1.1484535 
 1513000    386.61929   -62.163182    151405.31    1.0992342 
 1514000    379.77206    43.140754    149712.57    1.1116628 
 1515000    384.51066    16.288124    151485.04    1.0986556 
 1516000    336.35738    23.064085    148155.01    1.1233497 
 1517000    374.14202   -19.385442    148558.86    1.1202959 
 1518000    366.32475    11.867491    147744.08    1.1264742 
 1519000    385.08079    17.377735    146516.06    1.1359157 
 1520000    353.37921  -0.34865157    147281.84    1.1300096 
 1521000    384.21786    21.614003    146924.43    1.1327585 
 1522000    360.95646    20.561058     148564.3     1.120255 
 1523000     391.1747     17.97304    147721.99    1.1266426 
 1524000    373.22069   -4.0692027    149011.45    1.1168933 
 1525000    375.90312    -14.35877    146448.78    1.1364375 
 1526000    364.55724   -12.374629    146990.11    1.1322523 
 1527000    372.60521   -1.0878576    145778.79    1.1416605 
 1528000    348.62387   -3.8352955    145877.64     1.140887 
 1529000    368.18144   -16.257797    145704.84      1.14224 
 1530000    393.99511   -8.4398016    147564.36    1.1278461 
 1531000    338.89131    -8.919836    146307.33    1.1375362 
 1532000    381.47871    13.425849    146282.95    1.1377258 
 1533000    360.08702    19.715528    147167.99    1.1308838 
 1534000    370.88748    10.262944     147938.8    1.1249915 
 1535000    385.04189   -1.1496666     148308.8    1.1221849 
 1536000     371.0298   -5.6921727    149304.19    1.1147034 
 1537000    368.92465   -3.9793102    151394.21    1.0993148 
 1538000    351.36579   -20.281976    150700.15    1.1043777 
 1539000    391.78002   -18.701204    150974.64    1.1023699 
 1540000    362.71119     24.67813    151045.21    1.1018548 
 1541000    382.35112   0.85138003    149515.91     1.113125 
 1542000    361.65184   -38.349707    148816.96     1.118353 
 1543000    375.67149   -62.612503    147672.92     1.127017 
 1544000    386.61241    113.72176     142780.7     1.165633 
 1545000    345.33765   -130.92613    147576.73    1.1277516 
 1546000    392.40442   -42.479248    145916.31    1.1405846 
 1547000    365.54418    45.039243    143211.19    1.1621291 
 1548000    379.49605   -29.388099    144524.81    1.1515663 
 1549000    387.55036   -24.623867    144063.31    1.1552552 
 1550000    371.26938   -18.638326    145921.21    1.1405463 
 1551000    404.51581    27.372975    146678.49    1.1346578 
 1552000    349.43971   -26.903601    147643.48    1.1272417 
 1553000    380.48644  0.085987551    147913.85    1.1251813 
 1554000    369.29702    136.52985    146322.03     1.137422 
 1555000    379.77186   -8.7799942    147107.79    1.1313466 
 1556000    359.42952   -25.859158    148147.96    1.1234032 
 1557000    390.24527   -24.799806    149234.68    1.1152226 
 1558000    363.16506   -28.754146    148917.19    1.1176003 
 1559000    390.92377    85.680749    147212.23     1.130544 
 1560000    345.66177    32.646172    147054.27    1.1317583 
 1561000    398.76827    10.499014    147850.06    1.1256667 
 1562000    368.62542    -32.59452    149810.36    1.1109371 
 1563000    362.27508    9.4008374    148597.28    1.1200063 
 1564000    385.80488    48.771414    148789.45    1.1185598 
 1565000    389.85776    30.084683    148712.99    1.1191349 
 1566000    340.01556    11.560537    148558.22    1.1203008 
 1567000    373.85393   -72.797186    148151.58    1.1233757 
 1568000     367.3394   -28.069552    146322.38    1.1374193 
 1569000    353.85217   -22.154458    145154.51    1.1465705 
 1570000    388.01471    114.65271    145245.28     1.145854 
 1571000    373.28953    38.521002    147038.65    1.1318786 
 1572000    354.66065    23.595937    146802.63    1.1336983 
 1573000    386.57216   -11.880108       147143    1.1310758 
 1574000     376.6112    82.184393    145960.53     1.140239 
 1575000    359.76828    41.306301    145878.27     1.140882 
 1576000    369.73715     20.26652    146780.14     1.133872 
 1577000     386.3368    23.923045    148497.74    1.1207571 
 1578000    384.62897    6.1105093    148241.23    1.1226964 
 1579000    371.89751    118.01065    145712.43    1.1421805 
 1580000    400.91959   -37.725425    147695.61    1.1268438 
 1581000    343.57541   -19.707415    147730.01    1.1265814 
 1582000    376.73403   -35.721687    146199.56    1.1383748 
 1583000    381.81668     37.67271    145587.79    1.1431583 
 1584000    379.38773    26.055452    144495.76    1.1517977 
 1585000    340.11331    24.808105    143979.16    1.1559304 
 1586000    377.55473    2.8998885    145625.82    1.1428598 
 1587000    362.69136    81.497896    145402.83    1.1446125 
 1588000    390.25621    8.3133337    147222.54    1.1304647 
 1589000    357.81111   -23.937191    145998.69     1.139941 
 1590000     377.2213    9.8891405    143534.33    1.1595128 
 1591000    364.54489    28.578373    145118.22    1.1468573 
 1592000    374.29334    25.229136    146081.16    1.1392975 
 1593000    373.42168   -42.407244    146878.65    1.1331115 
 1594000    356.97158    21.042067    144891.81    1.1486494 
 1595000    374.06292    44.280574    143786.65     1.157478 
 1596000    367.62983   -110.21927    147289.27    1.1299526 
 1597000    377.39892   -0.7979572    146444.12    1.1364737 
 1598000    363.60347    29.266332    147532.42    1.1280903 
 1599000    376.27064    24.755701    148046.45    1.1241735 
 1600000     371.8052   -24.482742    148775.21    1.1186668 
 1601000    364.36356    60.919348    145773.29    1.1417036 
 1602000    385.79657    40.602954    147499.79    1.1283399 
 1603000    349.32623   -20.781952    148121.24    1.1236059 
 1604000    366.32421    18.710368    145830.17    1.1412583 
 1605000    393.13774    15.151799    144984.19    1.1479175 
 1606000    375.86275      31.8064    144166.56    1.1544278 
 1607000    376.08135    6.5027061     144883.3    1.1487169 
 1608000    364.31819   -121.85337     149012.9    1.1168824 
 1609000    340.97219   -59.984548    147492.11    1.1283986 
 1610000    394.11492   -31.955064    146655.75    1.1348337 
 1611000     366.7599   -3.1981611    144364.49    1.1528451 
 1612000    383.40158   -9.2578256    146807.43    1.1336612 
 1613000    367.83429    18.910148    147883.16    1.1254147 
 1614000    389.44788    30.199737    148202.62    1.1229889 
 1615000    384.55997    70.559456    145955.57    1.1402777 
 1616000    367.91418    152.14657    143466.97    1.1600572 
 1617000    408.93655    69.605993    146593.41    1.1353163 
 1618000     372.8353    52.054789    146160.53    1.1386787 
 1619000    356.28167   -16.288375    147097.28    1.1314274 
 1620000    383.15801   -21.471234    148047.66    1.1241643 
 1621000    357.64534    -18.43464    146709.01    1.1344218 
 1622000    379.08329    19.621389    146531.43    1.1357966 
 1623000    408.49453     18.61884    147590.78    1.1276443 
 1624000    361.55708    7.4908901    146113.45    1.1390457 
 1625000     392.9618    21.201728    145703.91    1.1422472 
 1626000    372.34255    13.667733    146209.81     1.138295 
 1627000    390.69482    16.708937    145686.33    1.1423851 
 1628000    370.14483    16.237571    146563.96    1.1355445 
 1629000    396.10051   -22.388153     148866.6    1.1179801 
 1630000    343.54127   -7.5782988    146779.74    1.1338751 
 1631000    365.09391    -16.26734    147116.28    1.1312813 
 1632000    379.10036   -18.810658    147075.91    1.1315918 
 1633000    358.89174    8.9726974    145633.68    1.1427981 
 1634000    382.56136    8.3771715    145915.34    1.1405921 
 1635000    364.17461   -20.842846    145554.51    1.1434197 
 1636000    375.50571    5.3927666    145554.33    1.1434211 
 1637000    387.88214   -25.925256    147277.11    1.1300459 
 1638000    356.73763   -32.003824    146484.26    1.1361623 
 1639000     367.7852   -44.181879    147412.07    1.1290113 
 1640000    373.93234    -74.04125    146054.77    1.1395033 
 1641000    347.89234   -104.01543    149676.29    1.1119322 
 1642000    379.03043   -131.86952    149447.84     1.113632 
 1643000    357.90967    117.19465    145928.61    1.1404885 
 1644000    393.92582   -33.684501    149205.69    1.1154393 
 1645000    381.35735    42.702921    148873.25    1.1179301 
 1646000    369.13046    18.518399     146783.2    1.1338484 
 1647000    377.31746   -35.065938    146503.69    1.1360116 
 1648000    366.07697    36.220957    144332.73    1.1530988 
 1649000    379.04032   -5.7382321    144741.81    1.1498398 
 1650000    374.21756   -20.182351    145366.67    1.1448972 
 1651000    367.74278   -3.5930544    144728.68    1.1499441 
 1652000     346.1258    23.785951    144009.52    1.1556868 
 1653000    370.42272    3.9992313    145483.23    1.1439799 
 1654000    394.68914    14.611377    146645.54    1.1349127 
 1655000    351.42783    18.081281    145152.28    1.1465882 
 1656000    370.73679    27.002981    144341.79    1.1530264 
 1657000    378.13004    13.241516    147365.04    1.1293716 
 1658000    382.02517   -3.4696834    148474.48    1.1209326 
 1659000    352.62984   -25.352485    148418.15    1.1213581 
 1660000    369.56882   -26.943608     147921.8    1.1251208 
 1661000    378.77052    28.906414    145559.02    1.1433842 
 1662000    362.94115    20.918631    145476.88    1.1440299 
 1663000    378.70219   -23.950126    146774.63    1.1339146 
 1664000    341.65566    -24.43563    144211.03    1.1540719 
 1665000    387.65915    23.601699    146273.58    1.1377987 
 1666000    385.16864   -9.3880746    145728.35    1.1420557 
 1667000    367.97406    -4.303211    144729.83     1.149935 
 1668000    350.92345   -8.2585811    146519.16    1.1358917 
 1669000    402.30319   -14.459912    147314.75    1.1297572 
 1670000    353.12925    11.904048    148132.75    1.1235185 
 1671000    376.50742    35.159125     148314.3    1.1221433 
 1672000    377.79091    36.250439    149546.25    1.1128991 
 1673000    366.72724   -24.683703     150353.6    1.1069232 
 1674000    387.43017     126.9459    145835.28    1.1412183 
 1675000    389.61663   -86.493706    150661.59    1.1046604 
 1676000    338.51435   -21.440664    148255.25    1.1225902 
 1677000    415.17155    43.145192    146599.34    1.1352704 
 1678000    360.97929    8.2485882    145488.21    1.1439407 
 1679000    366.81267    21.656897    144791.02     1.149449 
 1680000    367.29825    8.4163204    145246.03    1.1458481 
 1681000    374.90441   0.69332429    147709.97    1.1267343 
 1682000     370.8554   -23.791516    146678.81    1.1346553 
 1683000    375.37647    27.056575    144549.93    1.1513661 
 1684000    386.83619   -25.745874    146297.55    1.1376123 
 1685000    359.13002    16.219546    145951.36    1.1403106 
 1686000    382.10775   -14.840431    148032.62    1.1242785 
 1687000    369.67923   -43.059123    149089.06    1.1163119 
 1688000    388.46338    46.728739    145542.36    1.1435152 
 1689000    349.37989   -58.815365    150373.36    1.1067777 
 1690000    384.40563   -56.278166    148930.41     1.117501 
 1691000    364.75888   -2.9287203    148415.94    1.1213748 
 1692000    411.81431    129.73754    146414.38    1.1367045 
 1693000    398.34728    39.507432     147999.5    1.1245301 
 1694000    365.92399   -40.857499    150254.01    1.1076569 
 1695000    349.36054    27.962859    148842.85    1.1181584 
 1696000    405.36213     16.64215    151484.84    1.0986571 
 1697000    360.55903   -21.961484    150439.78    1.1062891 
 1698000    387.95603   -8.1753148    148578.28    1.1201495 
 1699000    380.49355    20.746709    148483.09    1.1208676 
 1700000    359.10067    2.8172812    147465.89    1.1285992 
 1701000    380.40393    10.819267    148057.21    1.1240917 
 1702000     380.7549   -15.062625    146242.73    1.1380388 
 1703000    382.98947     21.34633    145800.79    1.1414883 
 1704000    367.41093    1.9932172    146914.47    1.1328352 
 1705000    369.99274    23.102323    147604.48    1.1275396 
 1706000    373.94485   -17.800908    148522.01    1.1205739 
 1707000    370.79451   -4.7346519    148400.12    1.1214943 
 1708000    379.96506   -23.777254    148055.47     1.124105 
 1709000    340.89414   -13.317266     146625.8    1.1350655 
 1710000    371.13874   -24.692368    148971.89    1.1171899 
 1711000    411.91075    55.149382     147664.8     1.127079 
 1712000     352.1753   -33.199391    147810.27    1.1259697 
 1713000    375.90576   -11.431396    146625.26    1.1350697 
 1714000    371.33962    23.122346    147805.88    1.1260032 
 1715000    381.54266    27.965485    150102.78    1.1087729 
 1716000    352.16061   -26.273736    151429.62    1.0990577 
 1717000    396.69864     15.88542    151186.85    1.1008225 
 1718000    351.09861    9.0390311     150497.6    1.1058641 
 1719000    388.58217    -7.290059     151568.4    1.0980514 
 1720000    352.71705    11.999133     150782.6    1.1037738 
 1721000    373.73382   -21.130491    150184.52    1.1081694 
 1722000    358.09581    5.6275576    149454.49    1.1135824 
 1723000    378.22767   -14.863073    150348.74     1.106959 
 1724000    358.83858    13.596509    150370.15    1.1068014 
 1725000     380.2829    20.240359    149001.58    1.1169673 
 1726000     375.3708   -2.3634178    149774.12    1.1112059 
 1727000    373.61645   -5.9695363     151939.9    1.0953666 
 1728000    392.13832    23.417905    149287.41    1.1148287 
 1729000    353.00295    1.0870304    148029.94    1.1242989 
 1730000    372.09975   -2.3718195    148641.11     1.119676 
 1731000    385.69482   -1.8634008    148880.58    1.1178751 
 1732000    358.32625   -19.031167     150052.4    1.1091451 
 1733000     387.5134    19.985441    151352.52    1.0996176 
 1734000    357.85845   -16.454736    150397.85    1.1065975 
 1735000    359.20306    21.276218    147894.27    1.1253302 
 1736000    380.51966   -9.1549812    145458.17     1.144177 
 1737000     380.8579    5.1114901    144938.95    1.1482758 
 1738000    366.87884    12.481073    144835.18    1.1490986 
 1739000    371.14255   -3.3995971    145432.57    1.1443784 
 1740000    350.34579   -13.336793     145105.2    1.1469602 
 1741000      373.933   -7.6438245    145953.17    1.1402965 
 1742000    388.75901   -7.6518292    145800.14    1.1414933 
 1743000    365.16687   -20.336014    145749.74     1.141888 
 1744000    372.18274    7.2757047    146218.48    1.1382275 
 1745000    366.40809    22.715809    144841.61    1.1490475 
 1746000    405.86096    21.162253    144319.34    1.1532058 
 1747000    352.14027    21.265894    144959.85    1.1481103 
 1748000     402.3065   -4.3321593    145880.23    1.1408667 
 1749000     366.5887    25.068689    143344.21    1.1610506 
 1750000    362.62033    -16.62807    146011.13    1.1398439 
 1751000      366.984     13.91936    145090.55     1.147076 
 1752000    372.02826    40.094083    145533.93    1.1435813 
 1753000    397.80933   -30.899636    149781.52    1.1111511 
 1754000    358.88069    41.858055    146528.18    1.1358218 
 1755000    372.70842   -72.474326    147414.36    1.1289938 
 1756000    354.63047   -55.105501    150021.04     1.109377 
 1757000    382.65981   -63.427337    148362.68    1.1217773 
 1758000    361.03621    54.709413    146168.41    1.1386174 
 1759000    379.99514   -118.43574    150408.76    1.1065173 
 1760000    361.78128   -46.992497    148467.24    1.1209873 
 1761000    369.88376    37.561287    144650.79    1.1505633 
 1762000    389.81715   -9.6444661    145126.83    1.1467893 
 1763000    355.86093    24.933913    144864.78    1.1488637 
 1764000    374.94681     28.79739    146836.03    1.1334404 
 1765000    397.07914     44.61662    145944.79     1.140362 
 1766000    355.66924   -42.365818    149082.53    1.1163608 
 1767000    395.37098    43.158358    146678.83    1.1346552 
 1768000    359.47037    14.158218    145217.48    1.1460734 
 1769000    372.49991   -116.99825    148821.91    1.1183158 
 1770000    358.57429   -60.891369     143390.9    1.1606726 
 1771000    363.85147    35.457812    142009.29    1.1719648 
 1772000    382.28469    4.9514423    143064.12    1.1633238 
 1773000    361.28969   -16.608197    144489.16    1.1518503 
 1774000    377.97956   -21.376697    145659.53    1.1425953 
 1775000    385.21867    25.521278    145831.48     1.141248 
 1776000    378.44929    26.919458    146484.62    1.1361595 
 1777000    347.69453    21.614266    147759.55    1.1263562 
 1778000    354.35529    -3.705905    147441.55    1.1287855 
 1779000    372.92179   -25.644529    145410.21    1.1445544 
 1780000    397.73003   -43.870017    146681.32    1.1346359 
 1781000    359.06613     8.414113    144158.73    1.1544905 
 1782000    383.93832   -10.203215    144041.22    1.1554324 
 1783000     357.7278    25.683633    141597.17    1.1753759 
 1784000    409.56839   -76.878697    144828.24    1.1491535 
 1785000    345.46027   -84.234765    146792.06    1.1337799 
 1786000     389.8466    134.00601    142834.54    1.1651936 
 1787000    368.60921    29.078994    145727.15    1.1420651 
 1788000    397.91829    154.50609    143811.36    1.1572792 
 1789000    338.68996    30.882027    143981.34    1.1559129 
 1790000    392.33189    66.564268    143693.73    1.1582266 
 1791000    366.36417    37.641585    145740.98    1.1419567 
 1792000    376.56489    23.465068     146846.1    1.1333627 
 1793000    363.33475    120.04983    143455.89    1.1601468 
 1794000    377.25508    109.74584    144317.41    1.1532212 
 1795000    366.80374   -4.3995235    144876.47     1.148771 
 1796000     408.1654    -28.79822    147704.77     1.126774 
 1797000    369.46713    10.569878    147517.15    1.1282071 
 1798000    392.18008   -33.964734    147089.94    1.1314838 
 1799000    352.10749   -23.242226    147569.53    1.1278066 
 1800000    403.88851   -20.131053    148117.89    1.1236312 
 1801000    360.60856   -27.689884    147768.53    1.1262878 
 1802000    362.00867   -42.712348    149730.22    1.1115317 
 1803000    388.00354    108.50484    145467.57    1.1441031 
 1804000     365.4749     139.0922     144441.1    1.1522336 
 1805000    393.52193    62.021064    144814.96     1.149259 
 1806000    366.51489   -41.912112    147582.51    1.1277074 
 1807000    383.36719   -21.752015    145882.52    1.1408488 
 1808000    364.48728    9.0634056    147123.77    1.1312236 
 1809000    365.06559   -20.303036    147343.78    1.1295346 
 1810000    374.25049      30.9189     147054.4    1.1317573 
 1811000    364.79187    6.7593163    145985.07    1.1400474 
 1812000    378.08629   -3.3583533    146341.24    1.1372727 
 1813000    367.17788    -109.8748     147981.7    1.1246654 
 1814000     369.1638   -106.21285    146648.99    1.1348861 
 1815000    370.91271    88.511519    143201.85    1.1622049 
 1816000    396.87922   -56.143905    149327.74    1.1145276 
 1817000     339.0529   -11.655753    148527.52    1.1205323 
 1818000    386.42351    10.382505    147451.93    1.1287061 
 1819000    351.16308   -29.136381    148080.67    1.1239137 
 1820000    387.66733   -40.175297     146921.3    1.1327826 
 1821000    358.51542    117.36419    144620.72    1.1508025 
 1822000     387.0403    83.861552    143123.02     1.162845 
 1823000    366.96117    34.985155     143902.2    1.1565486 
 1824000     381.5986    33.103561    145045.49    1.1474324 
 1825000    365.61488   -11.304884    144780.87    1.1495295 
 1826000    385.72569   -8.9344841    147140.14    1.1310978 
 1827000    366.66492    28.336743    145026.94    1.1475792 
 1828000    367.62999    39.752357    145113.57     1.146894 
 1829000    380.82639    7.7896992     146902.9    1.1329244 
 1830000    387.05781    142.20406    145707.75    1.1422172 
 1831000    338.10868   -68.359433    150923.94    1.1027402 
 1832000    386.66212    36.950368    147635.99    1.1272989 
 1833000    381.52313   -20.996086    147953.12    1.1248826 
 1834000    390.71403    2.3508445    147790.34    1.1261216 
 1835000    368.97616   -62.750473    149438.76    1.1136996 
 1836000     379.3457    135.34613    145238.12    1.1459105 
 1837000     391.4714   -29.289077    146701.07    1.1344831 
 1838000    349.74439   -56.325145    148707.34    1.1191774 
 1839000    377.24631    33.690749    146755.23    1.1340645 
 1840000    366.96816   -11.072834    145347.79    1.1450459 
 1841000    397.99958    25.754804    145748.87    1.1418949 
 1842000    410.97047   -26.780647    147418.86    1.1289593 
 1843000    342.05969    15.510095    146755.24    1.1340644 
 1844000    411.55774    67.888944    146193.64    1.1384209 
 1845000    367.41189    2.2334184    149125.95    1.1160358 
 1846000    356.55257   -70.377249    148873.33    1.1179296 
 1847000    364.35679    47.986938    145012.15    1.1476961 
 1848000    378.47786     6.363513    146828.68    1.1334971 
 1849000    369.15376    23.572911    147057.49    1.1317335 
 1850000    377.14445   -19.926784    149743.53     1.111433 
 1851000    365.14074   -12.208182    148792.94    1.1185335 
 1852000    394.83754   -101.41147    149796.37    1.1110409 
 1853000    355.92883   -18.704539    147625.79    1.1273768 
 1854000    367.70684   -52.321727    146982.19    1.1323133 
 1855000    351.55042   -2.5542017    144348.96    1.1529691 
 1856000    386.13069   -25.290679     146004.1    1.1398988 
 1857000    368.77999    -10.86067    145239.23    1.1459018 
 1858000    369.30066    21.575299    146885.81    1.1330563 
 1859000    361.75972   -21.394012    146973.93     1.132377 
 1860000    368.30667   -33.369486    147584.65    1.1276911 
 1861000    366.94569   -100.40048    147353.72    1.1294584 
 1862000     381.0439   -6.4446689    145489.49    1.1439307 
 1863000    343.41939   -15.122054       145722    1.1421054 
 1864000    403.88812    27.366788    146551.76     1.135639 
 1865000     374.6971    7.4259871     146907.3    1.1328905 
 1866000    355.75482    95.485582    142793.08    1.1655319 
 1867000    374.23922    53.202026    142596.79    1.1671363 
 1868000    374.69676   -18.848748    146260.92    1.1378972 
 1869000    348.05815    45.820375    145286.87     1.145526 
 1870000    378.30433   -112.18113    148512.64    1.1206446 
 1871000    377.32687    24.356865    145980.16    1.1400857 
 1872000    352.45382    17.840448    147673.08    1.1270158 
 1873000    367.91621   -61.297378     147658.6    1.1271263 
 1874000    392.85408       57.163    145548.28    1.1434686 
 1875000    372.92909    32.539832     146052.8    1.1395186 
 1876000    386.92879    30.393838    146556.77    1.1356001 
 1877000    361.15846   -105.04735    148790.14    1.1185545 
 1878000    379.57486    51.024448    145531.52    1.1436003 
 1879000    369.95903   -22.888518    146614.43    1.1351535 
 1880000    374.09254   -24.566159    146958.38    1.1324968 
 1881000    387.93159    66.920198    143418.39    1.1604502 
 1882000    377.93827   -22.955985    144584.96    1.1510872 
 1883000    378.83131   -24.277343    143509.48    1.1597136 
 1884000    364.55194    42.565814    145011.76    1.1476993 
 1885000    386.00287    107.91481    142749.87    1.1658847 
 1886000    355.52721    43.562658    144587.17    1.1510695 
 1887000    397.61826   -22.278137    145243.92    1.1458648 
 1888000    361.62237    26.042117     145722.3    1.1421031 
 1889000     391.0625    30.709558    145798.56    1.1415057 
 1890000    366.56567    22.385941    143830.16    1.1571279 
 1891000    372.60305   -31.375212    144627.51    1.1507485 
 1892000    386.16153    128.82285     142457.5    1.1682775 
 1893000    361.12407   -73.209342    145149.86    1.1466073 
 1894000     382.3822    15.211396    144276.07    1.1535516 
 1895000      383.329    18.555362    145027.71    1.1475731 
 1896000    379.58813    16.303897    144349.14    1.1529677 
 1897000    374.91122    25.100933    144092.04    1.1550249 
 1898000    364.06832    9.9793613    144981.77    1.1479367 
 1899000     355.2457    43.274536    144939.27    1.1482733 
 1900000    382.28061   -44.160097    147232.88    1.1303853 
 1901000    390.67592   -25.417931    145950.63    1.1403164 
 1902000    350.27053   -94.843354     149608.3    1.1124376 
 1903000    380.36162   -45.998475    147518.82    1.1281943 
 1904000    399.29717   -7.2773883    148101.68    1.1237542 
 1905000     360.5282    23.801602    145697.88    1.1422945 
 1906000    379.28506   -45.941438    148499.17    1.1207463 
 1907000    365.43161    75.617851    145699.49    1.1422819 
 1908000    373.68937     95.77099    145744.27    1.1419309 
 1909000    376.70778   -32.187645    149667.64    1.1119965 
 1910000    370.85002    9.4270909    147790.84    1.1261178 
 1911000    370.06057     11.65079    148777.92    1.1186464 
 1912000    378.40867   -52.601772    148523.36    1.1205638 
 1913000     382.0682    73.704171    147749.77    1.1264308 
 1914000     357.0137    95.957706    145303.45    1.1453953 
 1915000     415.7585   -49.925099    149519.04    1.1131017 
 1916000    384.11951   -32.700063    147791.05    1.1261162 
 1917000     330.7096   -18.455751     147964.9    1.1247931 
 1918000    352.66094   -22.412674    148134.39    1.1235061 
 1919000    345.85585    9.5281917    146819.98    1.1335643 
 1920000    367.23938    18.654073    146788.51    1.1338073 
 1921000    341.67948   -50.732548    147814.57    1.1259369 
 1922000     373.8375   -119.16988    150448.71    1.1062234 
 1923000    392.29456     119.8421    146471.11    1.1362643 
 1924000    364.48853    6.2302897    146875.55    1.1331355 
 1925000    383.79924   -5.1464906    147296.07    1.1299004 
 1926000    351.29814   -31.123202    149380.81    1.1141317 
 1927000    397.30624    19.868758    148028.56    1.1243093 
 1928000    365.20357    2.3899572    149347.69    1.1143787 
 1929000    387.46706    20.809875    149073.72    1.1164268 
 1930000    334.78603    -19.38656    146765.83    1.1339826 
 1931000    379.00891    26.450467    146808.31    1.1336544 
 1932000    369.62826     50.08748    146915.54     1.132827 
 1933000    405.98474    90.365754    146459.17    1.1363569 
 1934000    345.44523    -50.41246    146669.97    1.1347237 
 1935000    374.08665    9.9959212    146618.06    1.1351255 
 1936000    347.03997   -37.372501    147020.71    1.1320167 
 1937000    402.00973    2.8247065     145444.4    1.1442853 
 1938000    381.16749    5.8327543    146782.75    1.1338519 
 1939000     345.8977   -24.769503    149256.26    1.1150614 
 1940000    401.00395    32.653216    148678.42    1.1193951 
 1941000    348.54869    32.128137    147378.32    1.1292698 
 1942000    394.65536     55.31265    147290.84    1.1299406 
 1943000    353.30859    -36.60577    149503.98    1.1132138 
 1944000     403.2078    66.057674    147069.63    1.1316401 
 1945000    381.53026    90.319253    146983.37    1.1323043 
 1946000    367.89823    15.405618    147866.22    1.1255437 
 1947000    396.52178    4.7656515    147603.61    1.1275462 
 1948000    368.96519    98.154704    146892.01    1.1330084 
 1949000     406.9453     147.0733    146848.89    1.1333412 
 1950000    372.22905   -115.74766    151502.39    1.0985298 
 1951000    376.63201   -74.142001    150086.02    1.1088967 
 1952000    367.83923    94.676456    145757.46    1.1418276 
 1953000    382.89509    87.858663    146257.39    1.1379247 
 1954000    382.83774    57.689875    147980.25    1.1246764 
 1955000     362.2763   -12.275266    151414.23    1.0991694 
 1956000    383.10049    44.416575    150641.37    1.1048086 
 1957000    366.33042   -33.477748    151382.91    1.0993968 
 1958000    374.13324     9.953041     150374.4    1.1067701 
 1959000    357.43756     1.562179    149250.14    1.1151071 
 1960000    366.04511   -25.453028    150887.46    1.1030068 
 1961000    373.31285    30.928667     149406.5    1.1139401 
 1962000     374.1936    18.533963    151024.85    1.1020033 
 1963000    373.64481    11.006757    150463.61    1.1061139 
 1964000    372.54194     21.93942    150978.74    1.1023399 
 1965000    379.77532    23.198539    149933.86    1.1100221 
 1966000    368.32531     27.07562    146949.63    1.1325642 
 1967000    381.31793   -29.172525    149196.55    1.1155076 
 1968000    352.77727    31.891265     147643.5    1.1272416 
 1969000    383.03992    32.203872    147297.85    1.1298868 
 1970000    366.13779   -36.601994    148544.95    1.1204009 
 1971000    389.36542   -18.999172    145768.86    1.1417383 
 1972000    321.11754    12.386524    144203.21    1.1541344 
 1973000    373.98161    60.978657    142513.11    1.1678216 
 1974000    352.96826   -63.105236    143797.62    1.1573897 
 1975000    374.59891   -116.44098    146443.71    1.1364769 
 1976000    366.95309   -73.535074    146794.12     1.133764 
 1977000    402.18227    66.509949    145811.38    1.1414054 
 1978000    348.66761      68.9291    146674.44    1.1346891 
 1979000     390.5137    52.227007    146140.05    1.1388383 
 1980000    352.99347    42.336886    144586.27    1.1510767 
 1981000    378.58466    -33.80497    147134.34    1.1311424 
 1982000    335.66203    23.505126    145977.64    1.1401054 
 1983000    379.09701    16.253515    146421.44    1.1366497 
 1984000    362.65618   -16.236053    146613.13    1.1351636 
 1985000    359.28831   -4.2959921    145453.24    1.1442158 
 1986000    389.00319    9.8310836    147889.88    1.1253636 
 1987000    370.08336   -10.945043    148260.26    1.1225523 
 1988000    364.27747     47.45038    145839.03    1.1411889 
 1989000     378.7278   -67.994347    148700.08     1.119232 
 1990000     370.5795   -57.187004    149923.86    1.1100961 
 1991000    367.79108   -95.850513    150594.96    1.1051491 
 1992000    393.97067     38.73788    147812.24    1.1259548 
 1993000    348.27623   -65.996758    148072.81    1.1239734 
 1994000    394.78064     98.91484    144010.23     1.155681 
 1995000    352.55646   -51.191905    146999.71    1.1321784 
 1996000    367.44295   -128.71161    148584.88    1.1200998 
 1997000     368.3922   -125.18533     147637.6    1.1272866 
 1998000    395.10699   -82.197182     147686.8    1.1269111 
 1999000    358.98255   -59.912057    146241.12    1.1380512 
 2000000    376.43039    23.145289    146411.39    1.1367277 
 2001000    353.47227   -18.777923    147085.84    1.1315154 
 2002000    397.58356    5.1173531    146053.82    1.1395107 
 2003000    380.58236    32.463668    147064.08    1.1316828 
 2004000    375.96146    53.574078    147463.82    1.1286151 
 2005000    375.52654    -54.98126    147727.54    1.1266003 
 2006000    374.28544    124.45489    144667.54    1.1504301 
 2007000    377.34053    24.525035    147651.97    1.1271769 
 2008000    385.60052   -35.365832    148147.24    1.1234087 
 2009000    339.60615    19.082136    145714.39    1.1421651 
 2010000    357.28926    -14.12123    147502.25    1.1283211 
 2011000    379.69154     39.51715    146105.82    1.1391051 
 2012000    386.01726   0.89214199    146644.93    1.1349174 
 2013000    356.95512    149.66292    142984.32     1.163973 
 2014000    389.83913    25.392471    145921.84    1.1405413 
 2015000    350.76192    21.731172    148055.25    1.1241066 
 2016000    382.24015   -15.414807    146370.87    1.1370424 
 2017000    371.13993   -8.2191368    148158.91    1.1233202 
 2018000    384.24008   -67.930354    149193.99    1.1155268 
 2019000    355.30899    102.23188    143671.98    1.1584018 
 2020000    343.67787   -49.667856    144401.44    1.1525501 
 2021000    381.18938   -20.989039    144696.03    1.1502036 
 2022000    354.91499   -26.744817    144012.83    1.1556602 
 2023000    384.43185    -40.14831    144194.67    1.1542028 
 2024000    373.88004    87.897446    140625.01    1.1835014 
 2025000    379.81176    3.5273997    142881.01    1.1648147 
 2026000    367.95181    67.993164    141796.29    1.1737253 
 2027000    381.54091    12.036517    143446.33    1.1602241 
 2028000    360.44132    17.485407    144705.36    1.1501294 
 2029000    397.41047    11.809022    142870.28    1.1649022 
 2030000    372.53734     60.10015    141369.17    1.1772714 
 2031000    364.91979   -103.86088     148261.4    1.1225437 
 2032000    397.28714   -4.7297361    146139.98    1.1388389 
 2033000    365.02165   -58.058831    147521.58    1.1281732 
 2034000    379.05973   -36.721187    145751.85    1.1418715 
 2035000    354.26499   -26.341285    147109.39    1.1313342 
 2036000    381.99911   -12.427486    148389.76    1.1215726 
 2037000    363.25708    9.1379794    146437.71    1.1365235 
 2038000    374.91593   -26.076646    145971.28     1.140155 
 2039000    371.31858    5.9242914    146624.07    1.1350789 
 2040000    364.71509   -60.852333    147870.75    1.1255092 
 2041000    394.13994   0.23475676    145107.48    1.1469422 
 2042000    359.60424    61.623517    142253.12     1.169956 
 2043000     392.9923   -26.919178    145415.41    1.1445135 
 2044000    362.99924   -23.658767    145927.83    1.1404945 
 2045000    386.02245   -4.3795261    144294.15    1.1534071 
 2046000    388.52195    38.226576    144010.49     1.155679 
 2047000    348.56737      7.08321    144050.98    1.1553541 
 2048000    393.40218    136.43565    144657.91    1.1505067 
 2049000    368.51407   -89.503385    148955.17    1.1173153 
 2050000    405.91149    65.516849    146973.25    1.1323822 
 2051000     352.3564   -43.127733    146730.58     1.134255 
 2052000    401.76569   -28.124784     147837.3    1.1257639 
 2053000    333.13715    10.061666    146666.84    1.1347479 
 2054000      381.065   -13.962546    146504.27    1.1360071 
 2055000    397.58327    24.113097    145442.43    1.1443008 
 2056000     356.6252    6.4761899    144867.41    1.1488428 
 2057000    373.15647     33.58871    146087.76     1.139246 
 2058000    411.11555    72.047343    145641.85     1.142734 
 2059000    366.88136   -66.461851    146824.87    1.1335266 
 2060000    378.66351    13.608601    145747.81    1.1419032 
 2061000    359.81295   -31.690691    148574.31    1.1201795 
 2062000    370.55227   -8.6670973    149854.89     1.110607 
 2063000    350.89156    24.301599    150777.51    1.1038111 
 2064000    360.57639   0.82004543    150654.42     1.104713 
 2065000    356.94299     33.92091    147358.13    1.1294246 
 2066000    387.11012   -111.61959    152146.49    1.0938792 
 2067000    350.57257   -85.859396    149588.44    1.1125853 
 2068000    366.90886    30.825368    145480.38    1.1440023 
 2069000    375.52151   -14.033061    147911.75    1.1251972 
 2070000    373.71595   -25.494831    147498.95    1.1283463 
 2071000    363.52258   -66.843148    148422.33    1.1213265 
 2072000    364.59351    37.718408    145918.61    1.1405666 
 2073000    367.71864   -59.095636    149777.07     1.111184 
 2074000    384.38809    -6.424496     145343.5    1.1450797 
 2075000    363.22447    27.581732    146121.93    1.1389796 
 2076000    389.88518     6.848703    148707.03    1.1191797 
 2077000    352.61981   -119.82669    150915.76    1.1027999 
 2078000    398.37932   -35.549248    148080.72    1.1239133 
 2079000    367.46725    -26.57522     147250.5    1.1302501 
 2080000    379.76453   -11.775489    146683.73    1.1346172 
 2081000    366.28871   -75.609616    148293.14    1.1223034 
 2082000    369.98284   -71.879724    148774.28    1.1186738 
 2083000    351.92669    -32.71462    150624.37    1.1049333 
 2084000    392.64701    17.085275     149580.1    1.1126473 
 2085000    368.47549    57.541525    150869.76    1.1031362 
 2086000    403.25803    107.07786    149136.09    1.1159599 
 2087000    383.88882    7.8847045    150813.68    1.1035464 
 2088000    368.50717    4.3404184    150592.89    1.1051643 
 2089000    360.01724    67.628805    148104.62    1.1237319 
 2090000    380.11475   -38.452632    149243.24    1.1151587 
 2091000    377.42345   -25.698703    150274.66    1.1075047 
 2092000    391.07205    29.403703    148089.34    1.1238478 
 2093000    361.95441   -97.507825    149916.16    1.1101531 
 2094000    376.66426   -41.285408    149442.57    1.1136713 
 2095000    383.39057   -22.804612    147549.75    1.1279578 
 2096000    351.91457   -98.984136    148935.34    1.1174641 
 2097000    372.96675   -43.744833    148068.64     1.124005 
 2098000     374.2629    3.0225269    144762.41    1.1496761 
 2099000    349.50248    -72.24729    148547.37    1.1203826 
 2100000     389.7766   -16.379887     148317.1    1.1221221 
 2101000    353.37892    17.297027    145725.74    1.1420761 
 2102000    375.84048   -42.954656    147595.68    1.1276068 
 2103000    360.53319   -79.431118    147475.47    1.1285259 
 2104000    376.21035   -18.273635    146755.38    1.1340633 
 2105000    387.41945   -44.857813    145690.97    1.1423487 
 2106000    354.04751    131.11197    141678.93    1.1746976 
 2107000    361.59779   -29.777322    144290.25    1.1534382 
 2108000    379.03539   -19.673212    144999.66    1.1477951 
 2109000    339.00814   -111.38973    145487.68    1.1439449 
 2110000     360.8069   -30.702203    147024.94    1.1319841 
 2111000    375.23636     3.639576    147288.19    1.1299608 
 2112000    385.96685    1.8360827    146378.06    1.1369866 
 2113000    361.91804    11.451541    145779.02    1.1416587 
 2114000    392.42231    117.46718    145288.86    1.1455103 
 2115000    359.51626    5.4561925    146672.17    1.1347066 
 2116000    380.82719    26.300407    146024.91    1.1397363 
 2117000    366.65608   -2.3843255    146946.96    1.1325848 
 2118000     381.4831    36.378191    146706.65      1.13444 
 2119000    364.95119    70.668166    144893.38    1.1486369 
 2120000    376.87559    32.920588    145692.83    1.1423341 
 2121000    361.31519   -58.942097    146533.68    1.1357791 
 2122000    389.14775    -51.32899    146775.13    1.1339107 
 2123000    388.55234   -1.9877912     145459.9    1.1441634 
 2124000    346.76063   -24.645468    147834.61    1.1257844 
 2125000    379.99412  -0.97683791     147833.7    1.1257913 
 2126000    393.42781   -10.499415    149998.72    1.1095421 
 2127000    351.51281    12.063297    146478.55    1.1362065 
 2128000    372.07848   -63.122041    146050.95    1.1395331 
 2129000    328.58131    -18.13745     145350.4    1.1450253 
 2130000    400.97455     -20.0725    146868.82    1.1331874 
 2131000    386.73895     57.15648    145590.77    1.1431349 
 2132000      360.719   -20.316704    147264.28    1.1301443 
 2133000     383.6832    -31.08074    148527.37    1.1205335 
 2134000    378.12558   -19.351573    149156.06    1.1158105 
 2135000    362.30246    29.234781    147343.08    1.1295399 
 2136000    397.52961     56.10857    147320.17    1.1297156 
 2137000    355.67996   -77.868014    150523.95    1.1056705 
 2138000    388.66118    15.046077    148262.18    1.1225377 
 2139000     344.9319    93.888202       145376    1.1448237 
 2140000    389.93814   -35.958558     150425.8    1.1063919 
 2141000    361.90049     8.728371    148967.58    1.1172222 
 2142000    378.86314   -89.790147    149717.93     1.111623 
 2143000    370.43257    13.278763    146494.87      1.13608 
 2144000    356.93228    52.570212    146682.27    1.1346285 
 2145000    381.26667   -12.861601    147425.72    1.1289068 
 2146000    347.75031     15.35302    148105.46    1.1237256 
 2147000    388.02937    77.085221    144822.47    1.1491994 
 2148000    372.40863   -53.781861    146581.79    1.1354063 
 2149000     387.5025   -6.3536594    144988.82    1.1478808 
 2150000    360.89868   -71.352428    148622.18    1.1198187 
 2151000    389.03686   -40.300839    147166.48    1.1308954 
 2152000    376.51746   -29.571662    146820.75    1.1335584 
 2153000    338.45338    106.07609    144563.99    1.1512541 
 2154000    389.18048   -53.808882       147974    1.1247239 
 2155000    372.26284    30.125878    146015.67    1.1398084 
 2156000    361.97656    101.09822    146255.89    1.1379364 
 2157000     406.5856    7.5386072    146206.53    1.1383205 
 2158000    371.61237    22.021302    144723.53     1.149985 
 2159000    392.97227   -35.916629    146676.75    1.1346713 
 2160000    381.67523   -28.917993    146072.37     1.139366 
 2161000    371.35372   -8.8461583    143973.43    1.1559764 
 2162000    389.31932   -59.843996     145514.7    1.1437325 
 2163000    354.31184   -63.981846    144846.36    1.1490099 
 2164000    357.62397    19.436287     142836.5    1.1651776 
 2165000    386.70929    38.855754    144615.75    1.1508421 
 2166000    371.70701    17.695771    145467.03    1.1441073 
 2167000    370.89918    40.417245    147616.37    1.1274488 
 2168000    369.72302    -14.49595    146985.12    1.1322907 
 2169000    385.33062    59.441634       145259    1.1457458 
 2170000    353.31318    -107.1257    148634.46    1.1197262 
 2171000    384.22467    7.3471046    147975.33    1.1247138 
 2172000    356.51375   -20.265389    148149.12    1.1233944 
 2173000    397.47797   -19.194903    146061.24    1.1394528 
 2174000    376.72355    -79.19106    148455.18    1.1210784 
 2175000    365.06005   -48.384662    146803.55    1.1336912 
 2176000    385.74853    22.097723    146255.71    1.1379377 
 2177000    368.89997    21.828357     145545.8    1.1434881 
 2178000     368.9143   -89.253567    149237.96    1.1151981 
 2179000    376.52708    22.916541    147087.32     1.131504 
 2180000    371.36941   -27.129258    149377.69    1.1141549 
 2181000    372.62004    18.531527    149028.92    1.1167624 
 2182000    387.77436    32.811659    148323.96    1.1220702 
 2183000    375.53355    20.599713    146547.44    1.1356725 
 2184000    363.00932    37.860355    146473.84    1.1362431 
 2185000    401.38143    97.309194    145037.53    1.1474954 
 2186000    366.36259    16.429642    146607.28    1.1352089 
 2187000    371.57301    34.127618    145757.93    1.1418239 
 2188000    371.34035    -105.7935    149991.92    1.1095923 
 2189000    371.88306    32.935526    148462.34    1.1210243 
 2190000    349.52928    15.991925    147547.36    1.1279761 
 2191000    372.67885   -100.75075    148133.34    1.1235141 
 2192000    374.31625    23.393528    146728.56    1.1342706 
 2193000    347.76922   -6.6904014    145622.27    1.1428877 
 2194000    381.12169    75.404779    141869.43    1.1731201 
 2195000    380.53527    80.587207    142369.83    1.1689969 
 2196000    357.03865   -29.992979    145528.89     1.143621 
 2197000    364.53087   -40.239855    147044.62    1.1318326 
 2198000    360.17074   -126.13825    147871.72    1.1255018 
 2199000    359.61366    31.198838    146088.14     1.139243 
 2200000    360.52568   -12.173586    147071.68    1.1316244 
 2201000    375.95452    71.901607    144017.71     1.155621 
 2202000    373.96974    116.38606    143644.17    1.1586261 
 2203000    357.70867    17.005882     144363.5     1.152853 
 2204000    378.34799   -8.1420472    145320.97    1.1452573 
 2205000    360.30376    21.756152    145119.77    1.1468451 
 2206000    392.62911  -0.95272551    146769.53    1.1339539 
 2207000    371.20765    -42.84135    147145.76    1.1310546 
 2208000    361.86411   -103.90119    150745.82    1.1040431 
 2209000    371.56982   -34.817838    147622.87    1.1273991 
 2210000    377.91199    44.286968    145758.38    1.1418204 
 2211000    351.97622   -89.040561    149323.71    1.1145577 
 2212000    396.81656   -20.677925    146444.36    1.1364718 
 2213000    339.36609    50.063305    145488.73    1.1439367 
 2214000    389.05079    95.401463    146031.85    1.1396821 
 2215000    387.43249     29.52646    146926.13    1.1327454 
 2216000    381.69473    48.676841    144190.07    1.1542397 
 2217000    353.65615    82.351333    143709.88    1.1580964 
 2218000    381.83452     11.76428    144138.97    1.1546488 
 2219000     362.7672    87.330572    141242.43    1.1783278 
 2220000    381.37666   -21.195988    143823.19     1.157184 
 2221000    363.53884    20.149911    142987.39    1.1639481 
 2222000    370.04624    138.45974    141322.52    1.1776601 
 2223000    391.40183   -33.475266    145220.66    1.1460483 
 2224000    344.68193   -41.442032    147253.22    1.1302292 
 2225000    395.62263    80.615362    144909.96    1.1485055 
 2226000    363.62256    -29.70313    147046.76    1.1318161 
 2227000    388.75589    80.151587    144167.35    1.1544215 
 2228000     363.1703    59.732012     145383.2     1.144767 
 2229000    389.52949    2.0552227    147054.51    1.1317565 
 2230000    365.09682    117.31499    144563.84    1.1512553 
 2231000    378.48938   -1.9359646    144818.99     1.149227 
 2232000    380.58691   -2.6116964    144798.41    1.1493903 
 2233000    374.41815   -19.505956     145226.4     1.146003 
 2234000    389.73845    -24.22288    145194.11    1.1462579 
 2235000    361.91879   -71.617108    148671.55    1.1194468 
 2236000    355.56077   -20.511188    149574.13    1.1126917 
 2237000    361.94721   -32.703458    148280.09    1.1224021 
 2238000    352.73428    108.09074    145692.62    1.1423357 
 2239000     400.3281    23.730278    146886.03    1.1330546 
 2240000    393.10719   -99.423031    150463.42    1.1061153 
 2241000    371.40795   -36.754607    149980.06    1.1096801 
 2242000    352.33308    15.607705    146736.01     1.134213 
 2243000    386.39447    57.165392    144584.04    1.1510945 
 2244000    353.31866   -26.720962    146402.45    1.1367972 
 2245000    389.50671    95.294011    143357.21    1.1609454 
 2246000    368.09629     3.496584    145342.59    1.1450869 
 2247000    375.98307   -5.8388695    145953.22    1.1402962 
 2248000    376.96401   -50.427875    148551.78    1.1203493 
 2249000    386.40882    5.0935007    147537.44    1.1280519 
 2250000    359.07007   -55.667243    149059.45    1.1165337 
 2251000    369.70466    34.694417    147893.12     1.125339 
 2252000    351.21103    35.694154    145592.52    1.1431212 
 2253000    345.75134   -63.858498    148171.53    1.1232245 
 2254000    361.25517     36.23687    146072.08    1.1393682 
 2255000    389.92209    29.491717     147134.4    1.1311419 
 2256000    361.75967   -100.82662    148831.63    1.1182428 
 2257000    364.37994    35.924693    145380.19    1.1447907 
 2258000    375.96884  -0.69575628    149050.59       1.1166 
 2259000    376.58788   -14.718156    151405.82    1.0992304 
 2260000     351.8026   -43.356555    150467.21    1.1060874 
 2261000     359.8508   -32.147567    149028.89    1.1167626 
 2262000    386.68872    7.9685376    146411.13    1.1367298 
 2263000    363.23017    40.091902    147753.26    1.1264042 
 2264000    377.44854    10.751578    147673.97     1.127009 
 2265000    353.82738   -67.251581     147527.7    1.1281264 
 2266000    391.14908    34.842424     144895.2    1.1486225 
 2267000    390.26316   -41.046058    145782.19    1.1416339 
 2268000    361.81379    82.650367    143906.39    1.1565149 
 2269000    365.50458   -16.316483    147998.81    1.1245353 
 2270000    379.79374    108.09582    147659.04    1.1271229 
 2271000     365.9754   -35.255496    151708.88    1.0970346 
 2272000    370.46768   -59.389289     149268.2    1.1149722 
 2273000    384.63096    32.817484    146997.31    1.1321968 
 2274000     356.3983   -19.512501    147430.17    1.1288727 
 2275000    383.15961    12.140373    147292.19    1.1299302 
 2276000    360.35609    21.583932    145985.65    1.1400428 
 2277000    381.27872     64.90097    142773.57    1.1656912 
 2278000    392.67886    40.942973    141815.18     1.173569 
 2279000     367.3632    64.336211    142304.35    1.1695348 
 2280000     390.8928    26.838599    145506.19    1.1437994 
 2281000    346.35833   -48.801093    146332.53    1.1373403 
 2282000    373.02914    8.2366947    148594.47    1.1200275 
 2283000     373.9409   -14.555824    147801.41    1.1260372 
 2284000    369.72917   -27.085262    146753.24    1.1340799 
 2285000    343.25266    35.538063    147138.29     1.131112 
 2286000    373.34266    102.97755    143902.56    1.1565457 
 2287000    386.70295    5.4792747    144459.61     1.152086 
 2288000    344.59533   -117.20591    145595.21       1.1431 
 2289000    374.49997   -35.091986    145912.81     1.140612 
 2290000    398.88438     127.2495    143161.48    1.1625326 
 2291000    353.86217    1.3793266    145842.77    1.1411597 
 2292000    392.33868   -83.735199    147480.19    1.1284898 
 2293000    371.72622   -35.761471    146863.49    1.1332285 
 2294000    357.95766   -60.120844    147283.76    1.1299949 
 2295000    379.44442    44.931274    143436.12    1.1603067 
 2296000    334.05057   -25.639602    144288.05    1.1534558 
 2297000    373.34873   -26.292497       144950    1.1481883 
 2298000    393.33304   -17.343163       146986     1.132284 
 2299000    371.31187   0.40476073    148999.63    1.1169819 
 2300000    388.06442    37.175713    148232.56    1.1227621 
 2301000    379.13322    58.542316    147204.22    1.1306054 
 2302000    354.85219   -6.8761586    147875.64     1.125472 
 2303000    364.69845    37.695359    146806.06    1.1336718 
 2304000    351.60192    25.075291    145864.46      1.14099 
 2305000    395.78227     14.07249    146813.14    1.1336171 
 2306000    371.59341    16.287109    145862.83    1.1410028 
 2307000    391.06523     53.94479    146307.33    1.1375362 
 2308000    373.94434    -14.44929    147476.35    1.1285192 
 2309000    379.95116   -81.923384    148116.84    1.1236392 
 2310000    368.00807    10.397987     146131.3    1.1389066 
 2311000    397.55459   -26.910958    144962.07    1.1480927 
 2312000    354.33013    45.140092    142892.84    1.1647182 
 2313000    403.73909    35.924279    144360.11    1.1528801 
 2314000    363.64453   -49.886914     146310.8    1.1375093 
 2315000    400.44263    46.970585    144888.39    1.1486765 
 2316000    385.13149    69.742538    141949.61    1.1724576 
 2317000    361.53229   -1.6210806    144467.15    1.1520258 
 2318000    368.62011    48.251208    143237.12    1.1619187 
 2319000    352.63172   -39.613592    145699.77    1.1422797 
 2320000    405.93055    85.620238    145236.13    1.1459262 
 2321000    358.17335     45.82088     145952.1    1.1403049 
 2322000    375.56399     22.12574    146205.37    1.1383295 
 2323000    365.34438    40.105166    145068.42     1.147251 
 2324000    400.85707   -3.4694917    146110.24    1.1390707 
 2325000    384.17223    -42.94892    145625.06    1.1428657 
 2326000    372.46044     55.27259    144001.49    1.1557512 
 2327000    370.42277   -50.090652     148077.9    1.1239347 
 2328000    366.79301   -14.448404    147281.35    1.1300133 
 2329000    372.06316   -96.409368    147584.37    1.1276932 
 2330000    356.26635   -29.287347    146566.85    1.1355221 
 2331000    371.05299   -105.06237    146588.31    1.1353558 
 2332000    370.12031     33.79832    145765.61    1.1417638 
 2333000     382.0934   -111.93131    147451.96    1.1287059 
 2334000    368.78816    34.112189    144395.31     1.152599 
 2335000    364.51443    116.78037    141354.42    1.1773943 
 2336000    384.83449   -1.8387262    144329.07     1.153128 
 2337000     342.8565   -97.916736    146740.04    1.1341819 
 2338000    400.05924    8.0846942    145470.71    1.1440783 
 2339000    378.11614   -113.78419    146820.39    1.1335612 
 2340000    363.80181   -18.756087    143770.63     1.157607 
 2341000    370.83812   -92.399167     149058.7    1.1165393 
 2342000    365.69276   -18.032774    144978.13    1.1479655 
 2343000    372.93007   -6.5875176       143665    1.1584581 
 2344000    360.51967    14.421536    145506.79    1.1437947 
 2345000    375.42805     15.66138    144112.64    1.1548598 
 2346000    386.37163    16.872429    145014.85    1.1476749 
 2347000    351.65685    -2.526327    146985.02    1.1322915 
 2348000    376.73326     71.25494    145645.35    1.1427065 
 2349000    384.31781    43.942749    145457.64    1.1441812 
 2350000    382.22198   -82.181005    147821.57    1.1258837 
 2351000    396.68906   -11.580392    145625.95    1.1428588 
 2352000    343.20927    117.70387    143306.92    1.1613528 
 2353000    374.02218   -25.997205    146638.55    1.1349668 
 2354000    368.85415    118.27577     143324.4    1.1612112 
 2355000    414.66842    34.021162    145360.45    1.1449462 
 2356000    371.67822    -74.84313    146377.76    1.1369889 
 2357000    373.16865   -29.910878    145188.75    1.1463002 
 2358000    384.28102    22.864704     145007.9    1.1477298 
 2359000    357.27854   -51.066073    146963.41    1.1324581 
 2360000    381.95762    23.240262    146479.34    1.1362004 
 2361000    363.55062    31.863754    145220.51    1.1460495 
 2362000    371.24501   -11.756628    144883.09    1.1487185 
 2363000    378.23501   -6.9329972    145802.53    1.1414746 
 2364000    357.48068    -16.87352    145190.81    1.1462839 
 2365000    384.17985    48.019781    145168.71    1.1464585 
 2366000    351.95492   -48.891513       147814    1.1259413 
 2367000    379.43419    54.102611    146144.21    1.1388059 
 2368000    379.09338   -72.124628    148130.83    1.1235331 
 2369000    363.81237   -32.002102     146633.6    1.1350052 
 2370000    383.70651     118.7064    143831.26     1.157119 
 2371000    373.31175     36.13771    146427.23    1.1366048 
 2372000    392.40212   -18.248167    147473.54    1.1285407 
 2373000    366.77444     50.93004    144597.06    1.1509909 
 2374000    389.90151   -11.228278    143829.81    1.1571307 
 2375000    376.31191   -60.789314    145548.34    1.1434682 
 2376000    403.33069   -13.042565    144589.16    1.1510537 
 2377000    357.75028   -26.028752    144697.75    1.1501899 
 2378000    382.34913   -24.736766    144543.64    1.1514162 
 2379000    388.77972    53.790582    144114.44    1.1548453 
 2380000    366.91073   -73.596584    146073.48    1.1393573 
 2381000    390.92984    19.282785    145056.12    1.1473483 
 2382000    374.30959   -102.66766    149406.53    1.1139399 
 2383000    347.15284    4.9751133    146521.21    1.1358757 
 2384000    388.11272     67.35087    146628.11    1.1350477 
 2385000    370.60327   -63.722445    151678.47    1.0972546 
 2386000    381.49674    41.437591     147268.7    1.1301104 
 2387000    336.35104    20.225493     146932.4     1.132697 
 2388000    390.43922   -1.6663821    147590.45    1.1276467 
 2389000    372.31381   -21.697291    146640.09    1.1349549 
 2390000    350.09995    5.4524374    145870.78    1.1409406 
 2391000    349.19418   -43.841031    146291.51    1.1376593 
 2392000    391.80479     97.10211     142672.7    1.1665153 
 2393000    376.09192    42.809333    144271.42    1.1535888 
 2394000    365.59012   -68.549136    147507.08    1.1282841 
 2395000    389.95534    32.180682    145967.79    1.1401823 
 2396000    349.35427    11.229793    145179.33    1.1463746 
 2397000    378.17244    -48.90667    146726.23    1.1342886 
 2398000    373.17885   -36.314759    145963.35     1.140217 
 2399000    370.05702    91.236663    142935.73    1.1643687 
 2400000    388.33974    28.582808    145914.89    1.1405957 
 2401000    376.78364   -39.692757    144626.94    1.1507531 
 2402000    363.63158     27.99791    142252.88     1.169958 
 2403000    394.23657    41.894049    143317.08    1.1612705 
 2404000     378.2434    35.955329    143926.25    1.1563554 
 2405000    372.27272    2.2231478    146450.81    1.1364218 
 2406000    379.48335   -26.690737    148727.07    1.1190289 
 2407000    361.50527    100.42678    146818.27    1.1335776 
 2408000    372.31864   -9.3855998    148618.65    1.1198453 
 2409000    372.78738    106.03575    144211.42    1.1540687 
 2410000    378.75932    23.027326    145844.43    1.1411467 
 2411000    370.87869   -62.595624    147373.68    1.1293054 
 2412000    382.43867    80.499141    142929.14    1.1644224 
 2413000    390.10618   -34.653312    146520.63    1.1358803 
 2414000    364.17196   -90.695818    144439.73    1.1522445 
 2415000    369.14757   -39.510895    143349.52    1.1610077 
 2416000    395.64936   -51.790127    145032.69    1.1475337 
 2417000    360.49025   -25.602317    144533.23    1.1514991 
 2418000     394.2632   -13.201868    145220.15    1.1460523 
 2419000    351.87854   -100.86178    148993.62    1.1170269 
 2420000    373.01311    9.9780685    145141.59    1.1466727 
 2421000    377.01617    55.235212    142592.88    1.1671683 
 2422000    389.53919    89.737728    141961.03    1.1723633 
 2423000    358.01664    8.8942737    143889.42    1.1566513 
 2424000    372.12382   -100.17463    149138.79    1.1159397 
 2425000    376.52632    38.050589    148298.73    1.1222611 
 2426000    353.27992    52.566995    148209.59    1.1229361 
 2427000    375.46959    36.575695    148025.26    1.1243344 
 2428000    351.60788   -46.649288    148892.14    1.1177883 
 2429000    386.37816   -83.128974    149386.41    1.1140899 
 2430000    403.35182   -26.114634    149272.44    1.1149405 
 2431000    364.66235    14.738878    150409.96    1.1065084 
 2432000    406.46932    36.300129    148903.74    1.1177012 
 2433000    349.79097   -44.024844    149177.75    1.1156482 
 2434000    358.83486    24.865366    149041.84    1.1166656 
 2435000     369.6069   -37.854231       148565    1.1202496 
 2436000    344.96709   -34.882047    146636.55    1.1349823 
 2437000    366.16419   -39.471276    146135.48    1.1388739 
 2438000    374.21111   -52.610941    147688.19    1.1269005 
 2439000    372.53333   -43.550924    146639.25    1.1349614 
 2440000    368.53077    11.402533    145868.01    1.1409623 
 2441000    370.66949   -77.635027    148340.58    1.1219445 
 2442000    385.39618   -8.0330325    147042.65    1.1318477 
 2443000    356.43207   -105.43383    150155.08    1.1083867 
 2444000    355.45615    35.829921    146350.45    1.1372011 
 2445000    382.91671    -85.25186    148426.16    1.1212976 
 2446000    360.32744    2.5060791    146458.52     1.136362 
 2447000    392.10336   -49.204546     148927.4    1.1175236 
 2448000    367.55354    32.944329    147895.65    1.1253197 
 2449000    380.28973     33.79666    147801.81    1.1260342 
 2450000    368.12452   -12.920217    148520.09    1.1205884 
 2451000    382.20656   -15.043806    146533.99    1.1357767 
 2452000    362.59541    82.189956     146071.8    1.1393705 
 2453000    364.02896   -38.930087    149061.47    1.1165185 
 2454000    373.45228   -94.239416     152063.4     1.094477 
 2455000    363.66286    36.303987    146603.82    1.1352357 
 2456000    379.26823     -97.8085    149873.89    1.1104663 
 2457000    366.30852   -26.798952    147992.62    1.1245824 
 2458000    381.04186   -18.919707    147753.43    1.1264029 
 2459000    348.48991    12.851406    147389.04    1.1291877 
 2460000     390.4656    111.53955    146911.14    1.1328609 
 2461000    359.81161   -31.730849    149723.01    1.1115852 
 2462000    386.74244   -78.134277    150890.75    1.1029827 
 2463000    372.66325    40.690999    147170.04     1.130868 
 2464000    372.14017    53.547987    145694.46    1.1423213 
 2465000    375.24439   -62.185427    146963.12    1.1324603 
 2466000    387.55296   -43.916784    146403.02    1.1367928 
 2467000    330.91459   -93.445948    148606.88    1.1199339 
 2468000    376.32083    35.253431    145442.43    1.1443008 
 2469000    383.88534   -86.805033    148301.23    1.1222421 
 2470000    346.87818    28.274613     144336.4    1.1530694 
 2471000    404.73186    52.119899    144364.87    1.1528421 
 2472000    357.03827   -96.201843    148450.88    1.1211108 
 2473000    375.15762   -38.273332    146186.68    1.1384751 
 2474000    359.26344    -53.51752    146151.42    1.1387497 
 2475000    356.96654     75.30619    144341.04    1.1530324 
 2476000    394.42016   -25.497138    148027.03     1.124321 
 2477000    372.49576    108.86817    143285.54    1.1615261 
 2478000    376.05044    46.101511    145355.22    1.1449873 
 2479000    388.31614    10.821168     146029.4    1.1397013 
 2480000    363.06993    87.613335    145179.48    1.1463734 
 2481000    374.03007    30.445654    146360.25    1.1371249 
 2482000    387.66764   -79.051398    147340.36    1.1295608 
 2483000    350.21163   -40.342158    145994.48    1.1399739 
 2484000    383.04172    38.538147    145589.83    1.1431423 
 2485000     377.1934   -110.59062    147878.63    1.1254493 
 2486000    407.89425   -25.606029    146651.58     1.134866 
 2487000    368.51451    -60.88783    145786.19    1.1416026 
 2488000    347.23846   -65.906163    144934.29    1.1483127 
 2489000    367.96866    38.602642     144017.4    1.1556235 
 2490000    343.06322   -101.63435    146820.97    1.1335567 
 2491000    389.23358    -10.91165    146170.22    1.1386033 
 2492000    379.17305    38.594098     145439.5    1.1443238 
 2493000    339.70453   -13.074705    147600.81    1.1275676 
 2494000    376.51786   -13.605659    148371.69    1.1217092 
 2495000    342.62898     41.88357    145745.82    1.1419188 
 2496000    364.05796    4.2949866    147550.85    1.1279494 
 2497000    373.19511   -31.629949    146967.02    1.1324302 
 2498000    362.78285   -60.817873    147082.03    1.1315447 
 2499000    386.03271    37.504694    147251.82      1.13024 
 2500000    353.99645    32.638004    148214.64    1.1228978 
 2501000    380.64812    75.925546    147948.39    1.1249186 
 2502000    354.53738     6.564222    147133.96    1.1311453 
 2503000    388.97191    30.447609    145649.45    1.1426743 
 2504000    369.76289    43.108756    147396.57      1.12913 
 2505000    358.96342   -11.044318    148919.88    1.1175801 
 2506000    355.14642    114.04894    145039.37    1.1474808 
 2507000    394.82638   -37.191985    147500.29     1.128336 
 2508000    367.55862   -34.822418    146253.89    1.1379519 
 2509000    359.63621   -72.545242     146798.2    1.1337325 
 2510000    371.29855   -28.657799    146202.93    1.1383485 
 2511000    356.36778   -80.883637    150460.45    1.1061371 
 2512000    374.13525   -37.341063    149751.16    1.1113763 
 2513000    368.52605    55.146721    148042.89    1.1242005 
 2514000    392.87134   -44.950002    152272.09     1.092977 
 2515000    371.21779    45.385873    149039.87    1.1166804 
 2516000    363.64723    18.680718    147848.08    1.1256818 
 2517000    373.48589    111.40825    144520.23    1.1516027 
 2518000    370.25103    19.101472    145192.71    1.1462689 
 2519000    381.52915   -21.965452    147991.66    1.1245897 
 2520000    362.86326   -77.279651    148562.92    1.1202653 
 2521000    386.93614   -7.8293774     148985.6    1.1170871 
 2522000    373.51111   -18.180031    148834.71    1.1182196 
 2523000    374.40072   -4.9323147    146300.48    1.1375895 
 2524000    363.91788    3.9919056    146371.98    1.1370338 
 2525000    386.54875    50.042469    147212.54    1.1305416 
 2526000    363.30159   -56.004608     148631.7    1.1197469 
 2527000    377.38118   -11.752769    148708.99    1.1191649 
 2528000    375.51888   -52.644623    149205.33     1.115442 
 2529000    353.97408   -95.958127    148440.41    1.1211899 
 2530000    385.22624   -37.560705    147934.94    1.1250209 
 2531000    368.17493    74.194222     144034.9    1.1554831 
 2532000     381.5583    14.602502    144216.29    1.1540298 
 2533000    357.28791   -14.639634    142508.09    1.1678628 
 2534000    383.86142    105.61758    141566.99    1.1756264 
 2535000    367.01142    36.114144    143202.18    1.1622022 
 2536000      373.417   -86.446153    146089.42     1.139233 
 2537000    329.25154   -37.236257    146568.72    1.1355076 
 2538000    394.04968    -40.63932    145876.49    1.1408959 
 2539000    337.28658    86.519626    141988.32    1.1721379 
 2540000    388.24386   -5.5136897    145943.83    1.1403695 
 2541000     358.9368    4.1583338    146297.25    1.1376146 
 2542000    371.36933   -51.410971    148684.14     1.119352 
 2543000    374.66494   -25.444072    146934.01    1.1326846 
 2544000    364.76025   -20.703946    145904.87     1.140674 
 2545000     374.1228     6.126683    146026.76    1.1397218 
 2546000     362.4256   -55.210956    147422.67    1.1289301 
 2547000    374.92048   -7.8018705    148917.78    1.1175959 
 2548000    390.29433    35.851297    146926.94    1.1327391 
 2549000    371.12186     35.19374    145094.09    1.1470481 
 2550000    374.80832   -37.056358    147618.68    1.1274311 
 2551000    361.74378   -3.6572141    145624.25    1.1428721 
 2552000    390.34902   -19.231021    145417.29    1.1444986 
 2553000    353.51005    1.4063635    144168.45    1.1544127 
 2554000     389.4123    58.873507    144625.61    1.1507636 
 2555000    341.23454    23.047154    143407.25    1.1605403 
 2556000    409.96899    88.084399    144405.24    1.1525197 
 2557000    357.09131   -11.210421    146371.09    1.1370408 
 2558000    375.67015    48.112046    145037.88    1.1474926 
 2559000     350.7905   -39.431975    145921.22    1.1405462 
 2560000    366.73466    30.331552    145194.41    1.1462555 
 2561000    366.43112    95.595604    142142.92     1.170863 
 2562000    387.87188    7.4857138    146861.66    1.1332426 
 2563000    358.13541    71.613136    144177.97    1.1543365 
 2564000    379.63589    -38.78977    146994.16    1.1322211 
 2565000     354.8988    -56.79676    147734.74    1.1265454 
 2566000    379.59807    64.274441    144082.15    1.1551042 
 2567000     369.2019   -9.8176559    145519.43    1.1436953 
 2568000    381.80731    108.46974    144131.15    1.1547115 
 2569000    373.30844    18.058653    147380.74    1.1292513 
 2570000    382.63425    96.184159    146010.48    1.1398489 
 2571000    394.52386    35.291831    146042.71    1.1395974 
 2572000    385.98769    4.3511128    146128.27    1.1389302 
 2573000    360.84342    64.393394     144758.2    1.1497096 
 2574000    369.92334   -38.242646    147549.38    1.1279606 
 2575000    386.88581    80.576086    144404.53    1.1525254 
 2576000    360.05668    37.982669    144408.16    1.1524964 
 2577000    362.09126   -87.794101    146613.23    1.1351628 
 2578000    390.69191    1.7632024    147411.71    1.1290141 
 2579000    357.57749    67.272745    147546.21    1.1279849 
 2580000    372.98208    49.486592    148756.83     1.118805 
 2581000    401.27394   -15.982678    149820.88    1.1108591 
 2582000     369.2384    85.379688    145852.08    1.1410869 
 2583000    369.10578   -15.047526    146964.32     1.132451 
 2584000    384.09776    68.475406    145163.25    1.1465016 
 2585000    332.34954   -41.595388    147376.18    1.1292862 
 2586000    383.14216    -3.040084    146831.47    1.1334757 
 2587000    391.12306   -3.8139973    147145.67    1.1310553 
 2588000    370.36875   -37.307108    147116.95    1.1312761 
 2589000    384.97069    28.917113    147583.46    1.1277001 
 2590000    368.02993    12.128869    148155.56    1.1233456 
 2591000    346.91352   0.02380132    146465.05    1.1363113 
 2592000    391.48369    86.095849    144183.35    1.1542934 
 2593000    381.77948    11.547493    146735.82    1.1342145 
 2594000     354.2877    35.926371    148117.17    1.1236367 
 2595000    398.57509    36.417212    149666.82    1.1120026 
 2596000    378.86455    23.611265    150552.97    1.1054574 
 2597000    362.66671   -98.873244    154638.43    1.0762518 
 2598000    368.28317   -23.215298    154665.74    1.0760618 
 2599000    382.33239    59.858084    151688.35    1.0971831 
 2600000    367.17278   -61.894329    151775.26    1.0965548 
 2601000    386.73116   -37.222441    151077.66    1.1016181 
 2602000    368.21532    79.814923    147967.03    1.1247768 
 2603000    375.81859   -42.180586    149811.36    1.1109297 
 2604000    356.32416    45.740715    146635.76    1.1349884 
 2605000    363.93032    47.193282     147832.3     1.125802 
 2606000    393.98159    21.818694     148296.5     1.122278 
 2607000    361.12165    45.753915    148348.08    1.1218877 
 2608000    385.08605   -34.546029    152526.25    1.0911557 
 2609000    369.00947    -33.43646    151524.63    1.0983686 
 2610000    369.45278   -77.572801    152941.34    1.0881943 
 2611000    352.99604    72.923407    149417.16    1.1138607 
 2612000    392.57494    35.532662    149527.71    1.1130371 
 2613000    367.62453   -5.5792139    151345.68    1.0996673 
 2614000    385.56277    99.606288     148497.8    1.1207566 
 2615000    393.40735   -12.951107    150622.56    1.1049467 
 2616000    354.07245    10.020722    149877.48    1.1104396 
 2617000    378.82177   -74.086428    150910.22    1.1028404 
 2618000    362.67198    68.865651    147808.99    1.1259795 
 2619000    385.33153     38.55418     149245.1    1.1151447 
 2620000    359.93877   -73.358291     151778.7      1.09653 
 2621000    373.73893   -61.382384    151293.71     1.100045 
 2622000     345.6834       10.933    150400.16    1.1065806 
 2623000    390.53707    5.2798587    147621.18     1.127412 
 2624000    364.95517    96.263326    146653.42    1.1348517 
 2625000    367.26351   -30.959708    149005.34    1.1169391 
 2626000    378.78864   -46.884208    149459.64     1.113544 
 2627000    335.97158    18.283911    147261.91    1.1301625 
 2628000    376.63759    42.127181    146324.74    1.1374009 
 2629000    362.32223   -31.914183     147902.3    1.1252691 
 2630000    381.67369   -14.062705    149000.16    1.1169779 
 2631000    355.63195    14.306367    146767.06    1.1339731 
 2632000    386.82355    32.449133    146832.31    1.1334691 
 2633000    365.80007   -93.379816    150253.99    1.1076571 
 2634000    379.17382    28.278469    145749.29    1.1418916 
 2635000    330.44883   -30.308281    147663.18    1.1270914 
 2636000    378.63974   -38.871556    148162.36     1.123294 
 2637000    354.95218     -80.1097    148286.79    1.1223515 
 2638000    380.73125   -36.367785    148310.04    1.1221755 
 2639000    382.72418    57.042636    144114.69    1.1548434 
 2640000    380.57794   -72.750405    145888.39    1.1408028 
 2641000    361.28725    15.606057    145059.81    1.1473191 
 2642000    362.12128    44.280366    146732.39     1.134241 
 2643000    367.45757    7.0384545    147768.19    1.1262904 
 2644000    400.78653    96.916034    145850.32    1.1411006 
 2645000    365.37577   -14.900612     146517.6    1.1359038 
 2646000      357.794    48.176059    145647.93    1.1426862 
 2647000    387.25141     72.13135    145694.74    1.1423192 
 2648000    367.34231    78.909488    146136.45    1.1388664 
 2649000    373.97051   -40.798119    150764.43    1.1039069 
 2650000     379.0279   -63.486952    149925.99    1.1100803 
 2651000    372.65484   -89.376979    149056.02    1.1165594 
 2652000    370.81203    -41.25528    147172.59    1.1308484 
 2653000    369.60721  -0.30147169    146175.86    1.1385593 
 2654000    384.21848   -56.382315    147160.21    1.1309435 
 2655000    363.21322    45.467502    144228.98    1.1539282 
 2656000    381.14623    34.577305    144587.87     1.151064 
 2657000    382.14574   -35.032307    145890.83    1.1407838 
 2658000    348.74334   -31.557432    147414.04    1.1289962 
 2659000    400.39226    11.989406     146953.8    1.1325321 
 2660000    365.40943    42.547961    144197.89     1.154177 
 2661000    372.06551   -44.740279    146190.83    1.1384427 
 2662000    360.49536    44.459394    146391.59    1.1368815 
 2663000    384.19886    -55.17197    148618.68    1.1198451 
 2664000    372.23718    12.456369     146620.7     1.135105 
 2665000    382.08761    51.919689    145365.99    1.1449025 
 2666000     383.6609   -99.613405    152647.02    1.0902924 
 2667000    356.17881   -36.676748    153918.76     1.081284 
 2668000    381.36234     16.06283    154124.43    1.0798411 
 2669000    388.56718    77.738055    152863.23    1.0887503 
 2670000     385.4495    20.130216    153392.75    1.0849919 
 2671000    378.55937    85.248289     149979.3    1.1096857 
 2672000    373.39478    11.729372     146800.2    1.1337171 
 2673000    371.72651    50.360487    145612.35    1.1429655 
 2674000    381.08958   -72.832678    148262.38    1.1225362 
 2675000    371.62944    20.602789    146023.13    1.1397502 
 2676000    383.05928    56.305957    145732.05    1.1420267 
 2677000    367.14145   -41.598378    145835.43    1.1412172 
 2678000    358.75645   -14.886495    145668.54    1.1425246 
 2679000    389.81267   -14.184094    146732.76    1.1342381 
 2680000    356.44183    78.395287     144039.5    1.1554462 
 2681000    429.63824    43.068237    143732.64     1.157913 
 2682000    367.18361   -80.904121    145417.91    1.1444937 
 2683000    397.03761    50.858093    142035.66    1.1717472 
 2684000    349.87695   -22.357665    144059.12    1.1552888 
 2685000     393.2531    33.679071    144064.87    1.1552427 
 2686000    375.19178   -87.780397    146747.96    1.1341207 
 2687000    356.45258    -44.66714    143556.17    1.1593364 
 2688000    410.20344    10.074142     144394.2    1.1526079 
 2689000    373.50473   -52.670042    145920.73      1.14055 
 2690000    420.00338   -40.162218    146867.23    1.1331996 
 2691000    349.36783   -23.351701    144028.67    1.1555331 
 2692000    360.47163    99.341475    143013.25    1.1637376 
 2693000    354.81656   -54.168024    145066.13    1.1472691 
 2694000    369.40894   -22.427345    145810.81    1.1414098 
 2695000    353.53879   -14.663428    144873.92    1.1487912 
 2696000    394.53347   -76.163866    147066.45    1.1316646 
 2697000    396.69273    18.761177    144586.95    1.1510713 
 2698000    376.57408    55.581949    143560.13    1.1593044 
 2699000    367.94384    97.209232    141549.97    1.1757678 
 2700000    374.89997    44.502178    143003.12      1.16382 
 2701000    371.10797   -23.707513    144419.68    1.1524045 
 2702000    367.62375   -60.566299    147297.92    1.1298862 
 2703000    376.45196   -41.518348    147379.96    1.1292573 
 2704000    404.28298    25.990286    142920.69    1.1644912 
 2705000    358.37228    55.844326     144046.2    1.1553924 
 2706000    382.53781   -46.952027    146268.64    1.1378371 
 2707000    343.36834    92.941702    144420.03    1.1524017 
 2708000    390.61288    53.761501    147032.18    1.1319284 
 2709000    358.84788    51.428554    146090.17    1.1392272 
 2710000    390.76931    73.354586    147032.76    1.1319239 
 2711000    358.95535    84.345815    145877.83    1.1408855 
 2712000    385.04459    33.010596    147298.52    1.1298816 
 2713000    373.02488   -18.994844    146097.17    1.1391726 
 2714000    357.11029    25.611795    145125.51    1.1467997 
 2715000     370.7976    92.385062     143951.2     1.156155 
 2716000     344.0331    -61.94635    148277.14    1.1224245 
 2717000    387.41853     50.02898    146279.71     1.137751 
 2718000    373.17517    56.194984    145937.07    1.1404223 
 2719000    384.86004   -28.694384    149153.69    1.1158282 
 2720000    366.56669    63.121875    146656.11    1.1348309 
 2721000    397.49784    72.024922    145557.01    1.1434001 
 2722000    343.65722   -18.332151    147115.48    1.1312874 
 2723000    393.26969   -54.880307    147904.02     1.125256 
 2724000     353.5976    -56.11592    146319.51    1.1374415 
 2725000    356.49647   -63.215277    147519.71    1.1281875 
 2726000    375.39564    6.0846053    145234.73    1.1459373 
 2727000    364.87043   -47.607258    145479.25    1.1440112 
 2728000    377.67696    86.621975    142681.54     1.166443 
 2729000    361.09287    87.067679    144840.58    1.1490557 
 2730000    409.00037    5.7515789    145888.49    1.1408021 
 2731000    361.17993    49.997046    144929.42    1.1483513 
 2732000    382.77345    63.338413    144336.32    1.1530701 
 2733000    363.52194    66.603306    144746.62    1.1498016 
 2734000    410.48686    46.986622    146205.57     1.138328 
 2735000    383.83595     2.319806    150086.12    1.1088959 
 2736000     346.1613   -83.856507    148849.01    1.1181122 
 2737000    370.49837   -55.924055    146771.54    1.1339385 
 2738000    379.37658   -14.319137    145902.93    1.1406891 
 2739000    379.62982   -25.702031    147833.65    1.1257917 
 2740000    350.79216    3.8816483    149442.93    1.1136686 
 2741000    396.26748    20.836935     148510.1    1.1206638 
 2742000     382.7703    47.387406    148494.08    1.1207847 
 2743000    365.62073   -28.050265    149301.08    1.1147266 
 2744000    378.53953    41.320054    148766.27    1.1187341 
 2745000     354.8353   -11.438575    148438.46    1.1212047 
 2746000    369.26993   -45.692323    147459.67    1.1286468 
 2747000    374.68714     97.76456    145696.96    1.1423017 
 2748000    368.28939    21.047218    148175.68     1.123193 
 2749000    374.27202   -36.029308    150174.76    1.1082414 
 2750000    339.23894    8.9598951    148711.94    1.1191427 
 2751000    375.78452   -5.3260955    149737.79    1.1114755 
 2752000    394.80938    -22.15741    150314.19    1.1072134 
 2753000    357.92326   -27.809422    150002.97    1.1095106 
 2754000    367.79633   -86.479927    150839.42    1.1033581 
 2755000      367.439   -36.764188    146459.42     1.136355 
 2756000    385.79368   -40.589394    148028.14    1.1243125 
 2757000    366.86889   -41.857969    146430.55     1.136579 
 2758000    386.42985    91.288957    143447.35    1.1602159 
 2759000    342.24909   -51.172622    147834.09    1.1257884 
 2760000    397.70728    -4.269113    147973.22    1.1247298 
 2761000    387.43479     51.51235    148331.12     1.122016 
 2762000    354.86869   -81.649404     149370.8    1.1142063 
 2763000    388.14435   -78.813264    148776.14    1.1186598 
 2764000    378.01619    53.355357    146466.96    1.1362964 
 2765000    377.86306    27.696427    146015.04    1.1398133 
 2766000    349.08205   -56.889907    149904.43      1.11024 
 2767000    390.02736    105.32276    146058.39    1.1394751 
 2768000    385.50664   -69.609901    148355.61    1.1218308 
 2769000    365.58024   -30.020662     149145.6    1.1158887 
 2770000    389.40037   -42.765187    150693.75    1.1044246 
 2771000    357.13661    42.935835    147985.24    1.1246385 
 2772000    393.76894   -60.764528    149601.21    1.1124902 
 2773000    346.42688    31.880058    145943.99    1.1403682 
 2774000     361.0939   -32.978039    146982.85    1.1323083 
 2775000    391.24022    30.847091    147535.87    1.1280639 
 2776000    375.87757   -25.912927    148897.54    1.1177478 
 2777000    375.16419    3.6237892    148298.97    1.1222592 
 2778000     360.6964    42.991641    146577.43    1.1354401 
 2779000    364.14965    -48.73298    146096.68    1.1391764 
 2780000    360.79327   -48.376246    147424.61    1.1289152 
 2781000     377.8255    35.335713    145241.16    1.1458866 
 2782000    344.79564    32.673213    144629.82    1.1507301 
 2783000    373.12275   -67.132937    148484.15    1.1208596 
 2784000    382.89842   -38.050662    149163.41    1.1157555 
 2785000    352.86923    48.309844    146611.44    1.1351767 
 2786000    406.79637    81.938054    144121.45    1.1547892 
 2787000     353.2001    81.481522    142782.56    1.1656177 
 2788000    360.18459    40.573842    144916.41    1.1484544 
 2789000    384.84926   -56.975876    147351.71    1.1294738 
 2790000    364.10405   -97.923573     149169.5    1.1157099 
 2791000    377.91886   -8.1897261    146685.54    1.1346032 
 2792000    366.01621    41.471344    146567.19    1.1355194 
 2793000    369.56301    -31.72523    147425.53    1.1289082 
 2794000       384.85    55.133722    145350.14    1.1450274 
 2795000    355.85313   -20.411186    147019.27    1.1320277 
 2796000    381.15183    88.914032    144535.55    1.1514807 
 2797000    348.07872    60.044382    144762.02    1.1496792 
 2798000    389.43172   -30.817561    146881.54    1.1330892 
 2799000    385.18016    45.503098     144513.4    1.1516572 
 2800000    366.57905   -60.573544    145487.27    1.1439482 
 2801000    371.73181    32.834341    143466.28    1.1600628 
 2802000    403.09075    73.281433    143321.89    1.1612315 
 2803000    378.52132    64.434893    144501.05    1.1517556 
 2804000    379.72588    51.147494    142960.16    1.1641697 
 2805000    358.95375   -32.471144    146275.13    1.1377866 
 2806000    381.13985    95.772287     143589.5    1.1590673 
 2807000    372.60445   -9.9047409    144965.86    1.1480627 
 2808000    388.34446    29.287754    146001.46    1.1399194 
 2809000    377.29425    -55.98966    147441.98    1.1287823 
 2810000    363.78517    95.403569    145435.22    1.1443575 
 2811000    376.10472     82.58623    144279.23    1.1535263 
 2812000    351.20787    46.642321     143953.2    1.1561389 
 2813000    389.82497    53.932884    142629.58     1.166868 
 2814000     367.5672   -54.287246     145343.8    1.1450774 
 2815000    360.99882   -51.840212    143107.56    1.1629707 
 2816000    382.13915    42.591151     141011.1    1.1802609 
 2817000    371.73516   -28.395139    144218.77    1.1540099 
 2818000     373.0981    58.134764    143215.41    1.1620948 
 2819000    368.34134   -50.187253    145701.89    1.1422631 
 2820000    357.04151    98.610456    144242.38     1.153821 
 2821000    359.74281   -71.983602    147371.98    1.1293184 
 2822000    381.12226    22.820961    146598.72    1.1352752 
 2823000    367.62778    51.169736    144140.56    1.1546361 
 2824000    382.23115   -48.527499    146429.86    1.1365844 
 2825000    398.97813    12.351204    145713.27    1.1421739 
 2826000    373.81262   -15.364092    146666.84    1.1347479 
 2827000    377.99042   -57.981683    148413.91    1.1213901 
 2828000    362.87972    16.611007    146883.78    1.1330719 
 2829000    385.82117   -13.288229    148023.44    1.1243482 
 2830000    365.41426    25.326147    145703.21    1.1422528 
 2831000    394.03632   -67.581477    146592.42     1.135324 
 2832000    373.82953   -87.807084    148001.18    1.1245173 
 2833000    347.28032    67.499239    144789.95    1.1494575 
 2834000    393.45152    11.584048    147236.25    1.1303595 
 2835000    363.45695    -48.47095    148151.63    1.1233754 
 2836000    385.03192   -36.191222    147912.85    1.1251889 
 2837000    360.89172    4.6841465    147350.12    1.1294859 
 2838000    391.30757    96.536624    145572.08    1.1432817 
 2839000    366.16627    4.4349621    146558.91    1.1355836 
 2840000    379.80097    24.622294    147882.68    1.1254184 
 2841000    376.10581   -49.035197    149111.08    1.1161471 
 2842000    359.13511    57.303427    145881.91    1.1408535 
 2843000    401.75321    24.876412    146761.53    1.1340158 
 2844000    345.68192    100.92464     144994.7    1.1478343 
 2845000    389.53205   -83.108103    148784.08    1.1186002 
 2846000    352.09276    29.329816     146966.8    1.1324319 
 2847000    375.56786   -45.853413     146725.6    1.1342934 
 2848000    364.38569    1.8565917    146673.33    1.1346977 
 2849000    380.25375   -64.844908     149398.8    1.1139975 
 2850000    351.95271     98.25737    145997.81    1.1399478 
 2851000    356.54268   -32.462675    150638.77    1.1048278 
 2852000    356.72922     24.73873     147277.2    1.1300452 
 2853000    364.60099    38.065085    144482.85    1.1519006 
 2854000    379.49946    70.051481    143980.46      1.15592 
 2855000    358.88842    40.761402    146886.01    1.1330548 
 2856000    376.08798   -66.498089    152331.16    1.0925531 
 2857000     383.2748   0.75967535    150608.05    1.1050531 
 2858000    382.64806   -33.302306    151255.48     1.100323 
 2859000    356.18185   -55.747198    150352.37    1.1069322 
 2860000    381.31425    -33.95858    149652.88    1.1121061 
 2861000    394.41778    -51.62572    148643.77     1.119656 
 2862000    368.21477   -12.460402    149347.67    1.1143789 
 2863000     390.3505     25.96107    148124.49    1.1235812 
 2864000    365.29164   -11.262819    148324.32    1.1220675 
 2865000    357.60835   -36.593488    149765.88    1.1112671 
 2866000    384.42538   -21.866742    149204.87    1.1154454 
 2867000      354.196    14.526012    146971.73    1.1323939 
 2868000    376.13938    55.076001    146058.51    1.1394741 
 2869000      380.247   -32.482624    148065.31    1.1240303 
 2870000    367.74061    53.699015    146035.59     1.139653 
 2871000    382.59101   -19.202727    145779.88     1.141652 
 2872000    371.91338    22.995145    144978.25    1.1479645 
 2873000    372.64203   -55.037066    146639.23    1.1349615 
 2874000    356.70259   -38.441236    147588.41    1.1276623 
 2875000    381.95843    36.917182    145233.35    1.1459482 
 2876000      387.833   -12.555103    146280.11    1.1377479 
 2877000    344.29114   -69.592128    145713.84    1.1421694 
 2878000    366.97421   -1.4405029    144135.36    1.1546777 
 2879000    405.21627    51.189147    143800.39    1.1573675 
 2880000    366.08464   -27.731165    145314.51    1.1453081 
 2881000    374.16276     6.032065    144399.94    1.1525621 
 2882000    372.12638   -69.343439    145615.94    1.1429373 
 2883000     341.7051    62.481061    142165.81    1.1706745 
 2884000    381.03204   -28.733227     145799.4    1.1414991 
 2885000    377.99696    57.226182    145566.19    1.1433279 
 2886000    377.35736   -13.654176    146416.49    1.1366882 
 2887000    385.82805   -62.969307     147695.1    1.1268478 
 2888000    362.46996     46.27995    145817.26    1.1413594 
 2889000    380.43766   -2.1025791    147336.24    1.1295924 
 2890000    407.14095    83.152616    144259.02     1.153688 
 2891000    376.73606    102.89781    143908.18    1.1565006 
 2892000    334.54816    61.628505    144963.55     1.148081 
 2893000    374.99289    33.041568    146283.65    1.1377204 
 2894000    340.04792    76.840153    144595.48    1.1510034 
 2895000    379.07305    -81.02215    147470.15    1.1285667 
 2896000    360.58323    57.427901    144931.68    1.1483334 
 2897000    376.97087   -28.366794    147301.14    1.1298615 
 2898000    379.78136    64.400153    145070.04    1.1472382 
 2899000     358.2005   -81.415095    148317.64     1.122118 
 2900000    376.81739   -23.918664    147042.96    1.1318453 
 2901000    365.79393    57.950584    145061.62    1.1473048 
 2902000    372.63142    48.336061    146604.11    1.1352334 
 2903000    361.48691   -50.174329    148044.28      1.12419 
 2904000    373.43696   -1.2073958    146465.95    1.1363043 
 2905000    382.44677    28.043538     145151.7    1.1465928 
 2906000    380.77972    30.469329    143144.25    1.1626726 
 2907000    380.51848    46.386627    141892.39    1.1729304 
 2908000    356.93937     16.52535    143045.34    1.1634765 
 2909000     374.3672   -42.677155    144089.95    1.1550416 
 2910000     369.6291      14.3504    143824.93      1.15717 
 2911000    364.27894   -77.469153    148929.05    1.1175113 
 2912000    378.31607    -1.357064    148321.56    1.1220883 
 2913000    357.51975    72.616464    145581.42    1.1432083 
 2914000    387.59544    32.112597    144763.46    1.1496678 
 2915000    378.86531   -28.042507    147124.67    1.1312168 
 2916000    372.01224    100.80133    144071.82    1.1551869 
 2917000    376.29986   -54.388885    146547.74    1.1356702 
 2918000     378.4369   -34.015373    145417.13    1.1444999 
 2919000    359.73901   -95.833449    146988.35    1.1322659 
 2920000    390.84065    15.629421    145285.88    1.1455338 
 2921000    353.34298   -68.979827    148643.96    1.1196546 
 2922000    377.30029    23.478378    143977.98    1.1559399 
 2923000    371.39478   -28.063419    146209.39    1.1382983 
 2924000    360.71943    119.07763    141654.02    1.1749041 
 2925000    371.87819    41.141994    145314.11    1.1453113 
 2926000     360.7902    16.387584    147183.83     1.130762 
 2927000    366.53885    52.811517     144175.3    1.1543579 
 2928000    395.04246   -27.387054    145322.36    1.1452463 
 2929000    355.20259    4.4378838    143628.67    1.1587512 
 2930000    362.90617   -23.154483    145356.32    1.1449787 
 2931000    377.69463    -16.21006     145171.5    1.1464364 
 2932000    399.32716    40.410823    143785.97    1.1574835 
 2933000    363.83266    3.5991347     143936.1    1.1562762 
 2934000    396.94728    49.649301    146142.93    1.1388159 
 2935000     351.8705   -27.575242    148497.58    1.1207583 
 2936000    390.48172   -61.048173    146437.15    1.1365278 
 2937000    360.77935   -1.6157655    144374.94    1.1527617 
 2938000     399.9099    86.830812    144547.29    1.1513871 
 2939000    370.49015    23.709299    144090.98    1.1550334 
 2940000    410.80703    80.289072    143459.84    1.1601148 
 2941000    341.81503    19.437288    145371.23    1.1448613 
 2942000     388.0893     32.18597    145192.89    1.1462675 
 2943000    377.83133    75.058504    145520.58    1.1436863 
 2944000    361.97687    -27.65307    145634.77    1.1427895 
 2945000     394.1957    41.677044    144186.67    1.1542668 
 2946000    377.68201    65.940907    144621.79     1.150794 
 2947000    374.12009   -6.8615755    146422.65    1.1366404 
 2948000    377.38088   -14.297202    145840.62    1.1411765 
 2949000    362.43496   -40.448008    147811.83    1.1259579 
 2950000    377.98318   -42.356464    148199.88    1.1230096 
 2951000    390.27812   -38.211782     145801.3    1.1414843 
 2952000    355.64266   -64.395938    147212.26    1.1305437 
 2953000    388.35519    51.299645    145743.25    1.1419389 
 2954000    349.58985   -8.7593932    147446.17    1.1287501 
 2955000    371.21117   -42.395229    149475.77    1.1134239 
 2956000    348.73447   -49.171138    151395.82    1.0993031 
 2957000    397.24706    -12.47401    150953.11    1.1025271 
 2958000    369.08248    91.851909    149577.92    1.1126635 
 2959000    387.47847   -37.967755    149588.98    1.1125812 
 2960000    360.09078   -14.581263    150617.09    1.1049867 
 2961000    383.14989    110.44482    145777.68    1.1416693 
 2962000    366.02261   -1.3724101    148100.94    1.1237599 
 2963000    392.33905    14.688751    148399.77    1.1214969 
 2964000    395.88214    101.58098    146518.79    1.1358945 
 2965000    357.47725   -38.373354    148851.14    1.1180962 
 2966000    379.20232   -68.079643     146171.6    1.1385925 
 2967000    358.60854   -24.081178    144344.73    1.1530029 
 2968000    402.79068   -33.153194    146878.71    1.1331111 
 2969000    355.21854     37.87064     142829.4    1.1652355 
 2970000    372.12869    68.598332    144393.89    1.1526103 
 2971000    382.20539    45.069755    142887.59     1.164761 
 2972000    388.18256   -17.514551    145943.93    1.1403687 
 2973000    351.86641    63.184295    144143.36    1.1546136 
 2974000    375.67039   -21.607651    144149.75    1.1545625 
 2975000    372.36206    8.3904691    143774.78    1.1575736 
 2976000    374.24704   -22.495499       146917    1.1328158 
 2977000    384.04043     -32.4118    148892.92    1.1177824 
 2978000    366.85594    71.105275    148286.45     1.122354 
 2979000    388.09258    24.304758     147519.9     1.128186 
 2980000    365.06339    -56.94634    147780.81    1.1261942 
 2981000    384.72255    91.139035    146180.55    1.1385228 
 2982000    362.96196    33.567833    147025.52    1.1319796 
 2983000    397.67824    79.567327    147075.75     1.131593 
 2984000     354.8702    -49.69359    147237.33    1.1303512 
 2985000    384.52976    47.580953    146214.13    1.1382614 
 2986000    368.34329   -103.11806    148166.13    1.1232654 
 2987000    378.09038    38.173744    146352.06    1.1371886 
 2988000    372.78183   -34.563753    149772.59    1.1112173 
 2989000    385.07448   -57.640733    150349.76    1.1069515 
 2990000    362.40486   -10.305382    149894.59    1.1103128 
 2991000    385.70588     63.74651    148530.96    1.1205064 
 2992000    367.38348    16.983563     148911.8    1.1176407 
 2993000    380.30398   -66.521396    150017.13    1.1094059 
 2994000    370.88268   -61.854337     148384.5    1.1216123 
 2995000    378.18095   -11.907124    147605.58    1.1275312 
 2996000    371.07676   -66.344551    149497.62    1.1132611 
 2997000    382.89837   -36.341887    147507.17    1.1282834 
 2998000    359.02829     40.63854    144425.85    1.1523553 
 2999000    372.73587    105.11642    143178.16    1.1623972 
 3000000    401.00314    -45.59574    146564.27    1.1355421 
 3001000    365.01782   -46.367562       145842    1.1411657 
 3002000    368.14881   -71.168116     147466.4    1.1285954 
 3003000    387.12902    20.533326    145534.53    1.1435766 
 3004000     357.3644    44.511936    145935.43    1.1404351 
 3005000      393.074    84.738492     148007.9    1.1244663 
 3006000    369.55332   -42.289481    151839.23    1.0960928 
 3007000    374.09875    10.283359    148771.47    1.1186949 
 3008000    378.82378     87.86697    146124.93    1.1389562 
 3009000    363.12696   -2.1723097     146166.1    1.1386354 
 3010000    390.88485   -51.583569    146383.77    1.1369423 
 3011000    371.81824     104.4866    144325.19     1.153159 
 3012000    390.06579    27.340708    146468.43     1.136285 
 3013000    365.88139   -80.448767    146909.26    1.1328754 
 3014000    382.14921    25.760101    145114.48    1.1468869 
 3015000    366.14237    3.4354942     146382.7    1.1369506 
 3016000    394.59548   -53.751207    147629.93    1.1273452 
 3017000    377.56132     35.21443     147020.1    1.1320213 
 3018000    369.45523   -47.171346    147079.61    1.1315633 
 3019000    381.31384   -69.571387    147622.79    1.1273997 
 3020000    383.25136    27.579693    142648.32    1.1667147 
 3021000    383.63213      -16.497    143644.46    1.1586238 
 3022000    364.49328   -45.174684    147532.06    1.1280931 
 3023000    390.65627    38.339831    145343.22    1.1450819 
 3024000    375.95775    30.076232    146625.82    1.1350654 
 3025000    370.03784   -35.886703    146259.09    1.1379115 
 3026000     359.0557   -107.74578    147727.66    1.1265994 
 3027000    383.02541    40.215081    143903.35    1.1565393 
 3028000     390.8972   -38.991633     146474.7    1.1362365 
 3029000     357.6497   -40.971802    145520.09    1.1436901 
 3030000    350.19296   -20.158662    146210.08    1.1382929 
 3031000    400.77402     48.49569    144197.59    1.1541794 
 3032000    359.31818   -49.725935    147411.78    1.1290135 
 3033000    373.11488   -45.686009       146221    1.1382078 
 3034000    369.79762   -30.836009    145479.61    1.1440084 
 3035000    375.21067   -97.943507    148685.12    1.1193446 
 3036000    365.06543   -12.105365    147235.11    1.1303682 
 3037000    384.82521   -101.82332    149945.25    1.1099377 
 3038000     367.6407   -41.293819    148496.07    1.1207697 
 3039000    345.54229    23.961083    145761.76    1.1417939 
 3040000    380.32559   -55.101403    148118.29    1.1236282 
 3041000    353.48789   -35.569982    149667.69    1.1119962 
 3042000    395.03701    102.58201    146324.98    1.1373991 
 3043000    345.39218   -37.471405    148518.21    1.1206026 
 3044000    407.51381   -18.239219    148451.73    1.1211045 
 3045000    403.22898    12.188002    147352.99    1.1294639 
 3046000    364.17943    9.2655843    146390.44    1.1368905 
 3047000    372.32854     27.65552    144731.25    1.1499236 
 3048000    394.93649   -18.478888    146836.34     1.133438 
 3049000     355.9946   -55.282614    146498.53    1.1360516 
 3050000    392.14947   -93.997533    147789.18    1.1261304 
 3051000    356.39426    40.594445    146764.14    1.1339956 
 3052000     379.6718    72.709462    144885.75    1.1486974 
 3053000    371.54883   -36.664313    147846.91    1.1256907 
 3054000    379.58884   -32.869986    149300.71    1.1147294 
 3055000    345.31854    65.338474    146461.99    1.1363351 
 3056000     356.6172   -41.651631    149585.23    1.1126091 
 3057000    397.60471    23.781955     148104.3    1.1237343 
 3058000    362.64172    10.278783    145497.35    1.1438689 
 3059000    355.56491    51.731081    145532.31    1.1435941 
 3060000    364.35733    -42.12442     146945.1    1.1325991 
 3061000    381.27503    69.118293    145019.38    1.1476389 
 3062000    340.06439    -73.77132    147986.04    1.1246324 
 3063000     390.2244   -38.105097    149202.89    1.1154602 
 3064000    369.66904   -42.895551    149309.75    1.1146619 
 3065000    369.79939   -78.169241    150735.96    1.1041154 
 3066000    368.55335    92.185417     145227.1    1.1459975 
 3067000    377.56632    2.6290988    145785.53    1.1416078 
 3068000    352.70322   -12.795069    144953.45     1.148161 
 3069000    423.05275    46.675771    145175.78    1.1464026 
 3070000    376.79296    93.770112    143681.04    1.1583288 
 3071000    392.26313   -48.020205    145421.28    1.1444673 
 3072000    346.83806   -21.534837    145578.98    1.1432275 
 3073000    392.68627    75.459344    144031.36    1.1555115 
 3074000    367.03513    28.396059    145889.53    1.1407939 
 3075000    368.26952    55.622552    144104.74    1.1549231 
 3076000    376.63879   -47.313411    145516.35    1.1437195 
 3077000    380.78979    5.9028895    144561.01    1.1512779 
 3078000    355.34297    -94.98827    146556.03    1.1356059 
 3079000     366.4566   -62.233893    147301.93    1.1298554 
 3080000    375.76523   -50.473531    147745.48    1.1264635 
 3081000    354.62207    26.682655    145784.99    1.1416119 
 3082000    380.64607   -22.907129    147670.73    1.1270337 
 3083000    347.59822    81.717799    146800.04    1.1337183 
 3084000    403.65959  -0.49545802     148007.4    1.1244701 
 3085000     394.9818    -45.09083    147297.72    1.1298878 
 3086000    350.02134    26.803869    145805.14    1.1414542 
 3087000    366.65826   -89.371584    147421.05    1.1289425 
 3088000    374.21515    53.557491    143856.09    1.1569194 
 3089000    392.69677    37.974326    145955.52    1.1402782 
 3090000    350.17508   0.65767306    148110.57    1.1236868 
 3091000    379.01304    80.580756    144735.95    1.1498863 
 3092000    365.67281    5.8762309    145799.93     1.141495 
 3093000    380.79236     27.22601    144326.44     1.153149 
 3094000    359.09989   -48.727705    145847.99    1.1411188 
 3095000    365.33475   -68.012331    147637.52    1.1272872 
 3096000    373.33593    8.8463828    149552.03    1.1128561 
 3097000    368.51072    41.501047    147139.33    1.1311041 
 3098000    359.16017    23.751687    146816.78     1.133589 
 3099000    386.65099    14.413924    148334.83    1.1219879 
 3100000    367.15615    83.379104    145984.91    1.1400486 
 3101000    379.62303   -12.375032    145956.87    1.1402676 
 3102000    378.70104    55.742042    145782.48    1.1416316 
 3103000    355.46307   -14.158955    145152.47    1.1465867 
 3104000     381.5033   -8.5512738    145150.09    1.1466055 
 3105000    388.02879    3.5339597    145154.65    1.1465695 
 3106000    344.86611   -75.017196    148071.53     1.123983 
 3107000    362.12473   -47.127939    149340.85    1.1144298 
 3108000     377.1567    6.5969682    148267.69     1.122496 
 3109000    355.89155    58.596899    145047.83    1.1474139 
 3110000    385.39322    36.252715    148032.57    1.1242789 
 3111000    351.29346   -84.680539    150250.79    1.1076806 
 3112000     372.7735    19.558679    146415.33    1.1366971 
 3113000    374.49535    8.4842351     148202.6     1.122989 
 3114000    385.93408   -25.882178    148009.05    1.1244576 
 3115000    354.27757    59.568327    143661.52    1.1584862 
 3116000     379.6466     65.80349    142217.63     1.170248 
 3117000    363.88315   -8.4008688    144380.27    1.1527191 
 3118000    364.15081   -48.335285    144345.59     1.152996 
 3119000    353.10711   -79.487486    146008.03    1.1398681 
 3120000    372.32168   -92.359864    147455.39    1.1286796 
 3121000    358.09565   -36.498266    145585.54    1.1431759 
 3122000    392.30759    47.226321    145829.95      1.14126 
 3123000    370.43084    41.296224    146768.69    1.1339605 
 3124000    405.43728   -87.166099    149909.71    1.1102008 
 3125000     388.6812    -75.71911    148774.15    1.1186748 
 3126000    368.32338   -38.738637    148008.46     1.124462 
 3127000    383.80058   -50.413037     147802.4    1.1260297 
 3128000    337.22126   -52.910579    146639.92    1.1349562 
 3129000    391.53397   -66.198583    148817.93    1.1183457 
 3130000    350.04176    55.004782    144906.27    1.1485348 
 3131000    381.03643    -29.12326     146180.9    1.1385201 
 3132000      362.295   -32.565259    143436.36    1.1603048 
 3133000    394.42101    102.36265    140803.86    1.1819981 
 3134000    338.75423   -73.453332    146060.28    1.1394603 
 3135000    379.70916    17.594774    144709.43    1.1500971 
 3136000    365.91231    15.831153    145113.48    1.1468947 
 3137000    385.62238   -57.939402    146863.58    1.1332278 
 3138000    375.23685    -65.93757    146152.58    1.1387407 
 3139000     325.4328   -92.556449    147281.15    1.1300148 
 3140000     378.9103   -75.912566    146326.95    1.1373837 
 3141000    336.31738    -57.30324    146731.84    1.1342453 
 3142000    377.04764    39.133215    145547.88    1.1434718 
 3143000    359.73724   -15.298887    147668.01    1.1270545 
 3144000    394.66319    69.164568     146503.3    1.1360147 
 3145000    337.75121    11.785452     146766.6    1.1339766 
 3146000    392.53912   -15.308447    145191.82     1.146276 
 3147000    395.19762    57.802208     143777.1    1.1575549 
 3148000    387.89203    31.738572    144196.99    1.1541843 
 3149000    404.99384    -38.10839    147712.04    1.1267185 
 3150000    363.11767    88.811861    144517.37    1.1516255 
 3151000    381.98004   -91.255116    147640.37    1.1272654 
 3152000    358.57817   -6.8242795    144211.85    1.1540653 
 3153000    364.49873   -60.745383    146912.71    1.1328488 
 3154000    387.81884    55.915797    146429.07    1.1365905 
 3155000    378.91438    -11.99486    147855.59    1.1256246 
 3156000    405.01886   -29.706392    148775.95    1.1186613 
 3157000    353.58307   -54.800677    147548.22    1.1279695 
 3158000    381.73205   -66.279597    146820.83    1.1335578 
 3159000    377.41389    68.868854    145210.84    1.1461258 
 3160000    347.49353    -26.04301    146712.82    1.1343923 
 3161000    376.03378    27.353446    145054.59    1.1473604 
 3162000    368.18123   -17.341195    145272.49    1.1456394 
 3163000    370.07969   -60.012047    146589.44    1.1353471 
 3164000    385.24642    -45.62491    145785.81    1.1416055 
 3165000    359.05013    -83.61618    147827.46    1.1258388 
 3166000    385.24556   -58.214428    147950.75    1.1249006 
 3167000     354.7819   -41.278556    145385.01    1.1447528 
 3168000    394.58129      41.3277    143922.03    1.1563893 
 3169000    352.44192   -33.060264    145035.61    1.1475106 
 3170000    389.51957    38.431739    145492.92    1.1439037 
 3171000    376.83896   -59.920055    147200.59    1.1306333 
 3172000    379.62091     55.58927    144929.04    1.1483543 
 3173000    376.89996   -54.809237    147803.49    1.1260214 
 3174000    366.97308    26.308761    146046.75    1.1395658 
 3175000    360.82059   -82.009274    151593.93    1.0978664 
 3176000     359.7423   -77.772597    150501.54    1.1058352 
 3177000    383.95366   -14.727783    150387.84    1.1066712 
 3178000    343.22049    -38.20411    149326.64    1.1145359 
 3179000    374.48476   -52.770199    148439.04    1.1212003 
 3180000    387.49498    36.866823    147089.59    1.1314865 
 3181000    355.29088    13.507231    148157.65    1.1233297 
 3182000     376.4398   -76.227119    149371.13    1.1142039 
 3183000     375.6539    9.5346842    147401.87    1.1290894 
 3184000    339.13869   -47.468812    148709.51    1.1191611 
 3185000    379.51758    69.703826    146556.34    1.1356035 
 3186000    372.94569   -29.686862    148724.09    1.1190513 
 3187000    388.75902    85.496165    145290.01    1.1455013 
 3188000    357.22042   -47.629641    146832.87    1.1334648 
 3189000    365.71655    26.985492    145905.32    1.1406704 
 3190000    371.19498    -9.526015    148461.33    1.1210319 
 3191000    363.17458   -93.431748     151194.1    1.1007698 
 3192000    374.18717    66.460528    146751.22    1.1340954 
 3193000    382.84343   -13.525174     147261.1    1.1301687 
 3194000    379.12217    -9.397131    147320.33    1.1297144 
 3195000     356.7302    37.308351    147578.79    1.1277359 
 3196000    364.68911    40.760012    144764.74    1.1496577 
 3197000    373.39474   -46.149303    146652.85    1.1348562 
 3198000    367.24461    48.406893    147014.08    1.1320677 
 3199000    385.74194    64.289002    146067.27    1.1394058 
 3200000    357.52723   -55.729505    149408.44    1.1139257 
 3201000    367.33001    9.2541371    149906.99     1.110221 
 3202000    379.77507   -29.158946    150042.47    1.1092185 
 3203000    363.13481   -92.993424     149855.7     1.110601 
 3204000     383.3848    44.479784    147801.66    1.1260353 
 3205000    372.89764    4.8519144    148284.04    1.1223723 
 3206000    372.73728     29.60494    146840.18    1.1334084 
 3207000     386.6706   -24.667922    146476.11    1.1362255 
 3208000    356.17465   -14.824796    146270.87    1.1378198 
 3209000    383.40502    23.938429    146159.78    1.1386846 
 3210000    380.84265   -34.362504    148520.28    1.1205869 
 3211000    364.15776   -34.800661    148713.51     1.119131 
 3212000    371.70422   -35.010638    149582.07    1.1126326 
 3213000    365.19344   -14.679669    149757.47    1.1113295 
 3214000     374.0267   -42.030593    149519.69    1.1130968 
 3215000    367.06528    9.7415414    148116.09    1.1236449 
 3216000    371.61163   -51.554943    148658.86    1.1195423 
 3217000    365.95601   -3.7793147    147210.44    1.1305577 
 3218000    389.54163    10.143716    149181.43    1.1156207 
 3219000    381.93835    56.393512    149084.85    1.1163434 
 3220000    362.84949   -19.756703    149458.06    1.1135558 
 3221000    391.29922     61.92422    147651.56    1.1271801 
 3222000    356.93965     42.87763    147851.43    1.1256563 
 3223000    389.22866    23.233165    147800.64    1.1260431 
 3224000    357.26497   -71.167395    149483.41    1.1133669 
 3225000     359.4298     9.651281    147453.68    1.1286927 
 3226000     377.6897   -37.800664    150653.72    1.1047181 
 3227000    368.52309    49.787628    148938.45    1.1174407 
 3228000    339.68374    77.545339       146477    1.1362186 
 3229000    378.99167    61.304887    148894.22    1.1177727 
 3230000    383.72017    48.415876    147240.54    1.1303265 
 3231000      369.348   -17.153467     146835.1    1.1334476 
 3232000    396.51852   -16.777766    147307.39    1.1298136 
 3233000    361.96116   -77.691886    148805.78     1.118437 
 3234000    378.39971    50.637156    144854.39    1.1489461 
 3235000    379.60628   -49.008347    147490.26    1.1284128 
 3236000    365.19512    77.262072    144090.29    1.1550389 
 3237000    380.15122   -53.973169    148359.84    1.1217988 
 3238000    369.53008    27.481212    146867.68    1.1331962 
 3239000    379.73289    1.1709371    146682.13    1.1346296 
 3240000    336.64025   -38.978044    147387.73    1.1291977 
 3241000    376.67672   -73.523921    148430.99    1.1212611 
 3242000    365.13096   -29.493507    147297.15    1.1298922 
 3243000    390.22109    49.141596    146966.69    1.1324328 
 3244000    360.93268    9.8009354    146518.22    1.1358989 
 3245000    372.05414    33.052675    146444.13    1.1364736 
 3246000    368.64886   -13.169866    146558.31    1.1355882 
 3247000     397.5963    7.6087049    145085.53    1.1471157 
 3248000    379.38325    71.992786    144635.41    1.1506856 
 3249000     381.2236    31.977128     145798.3    1.1415078 
 3250000    375.36212   -45.671155    146261.36    1.1378938 
 3251000    352.73577    4.4240402     145275.3    1.1456173 
 3252000    407.80123    17.491892     148036.6    1.1242482 
 3253000    376.08448   -41.936132    148447.39    1.1211372 
 3254000    370.47147    76.950796    143697.34    1.1581974 
 3255000    371.34597   -45.139418    145635.84    1.1427811 
 3256000    369.00115   -16.460956    147930.65    1.1250535 
 3257000    363.23356   -54.457033    149095.33    1.1162649 
 3258000    414.45091    45.446903    146073.44    1.1393576 
 3259000    356.28642   -64.519018    146346.29    1.1372334 
 3260000    370.27996   -39.844019    146246.44    1.1380099 
 3261000    398.38061    61.053896    144975.48    1.1479865 
 3262000    342.40276    3.8870086    146440.68    1.1365004 
 3263000    376.62386    79.258759    147358.73    1.1294199 
 3264000    369.82738    36.158114    147914.33    1.1251776 
 3265000    384.09077    2.4873512    150108.44    1.1087311 
 3266000    356.84705    33.071056     148223.8    1.1228284 
 3267000    379.00627    96.869025    145065.61    1.1472733 
 3268000    367.78296   -65.792772    148819.39    1.1183348 
 3269000    392.08302    11.493528    147595.22    1.1276103 
 3270000    364.92773   -6.7096784    146881.47    1.1330898 
 3271000    371.92193      -66.388    148849.29    1.1181101 
 3272000    358.53756      -61.828    147547.31    1.1279765 
 3273000    386.07071    51.470777    145354.27    1.1449949 
 3274000    359.18683    31.518417    144297.61    1.1533794 
 3275000    377.34425    -24.73652    144257.32    1.1537016 
 3276000    388.70432    70.235705    142483.62    1.1680633 
 3277000    368.22091    50.321614    143886.13    1.1566778 
 3278000    395.87555   -11.538288    146687.16    1.1345907 
 3279000    344.51589   -24.913312    146003.67    1.1399021 
 3280000     377.7666   -55.993174    144474.72    1.1519655 
 3281000    367.39774   -90.591684    147562.59    1.1278597 
 3282000    379.84311    51.067856    145622.48     1.142886 
 3283000    362.54805   -32.821223    147035.29    1.1319044 
 3284000    365.24053   -7.9178502    146842.34    1.1333917 
 3285000    385.41127     4.586387    147109.42     1.131334 
 3286000    373.78049   -21.787419    147908.43    1.1252225 
 3287000    351.66042   -48.955894    146606.16    1.1352176 
 3288000    370.45872    99.924621    144845.03    1.1490203 
 3289000    378.11086   -48.568161    150864.86     1.103172 
 3290000    385.59801   -29.369925    150398.77    1.1065908 
 3291000    368.61171   -59.240292    151929.17    1.0954439 
 3292000    344.55231    -90.57078    152059.95    1.0945018 
 3293000    385.89755     -58.1842    152547.28    1.0910053 
 3294000    352.28981    44.505295    145532.63    1.1435916 
 3295000    409.40864   -60.035411    149591.07    1.1125657 
 3296000    365.51282    81.075238    144858.07     1.148917 
 3297000    357.09538   -39.523195    147055.99    1.1317451 
 3298000    383.24009   -45.741382    147163.88    1.1309154 
 3299000    385.21347    64.041819    145616.32    1.1429343 
 3300000    378.93633    107.60153    145458.41    1.1441751 
 3301000    366.48483    63.691834     146629.3    1.1350384 
 3302000    368.90574    32.580149    145950.28    1.1403191 
 3303000    375.95349    57.630496    146459.11    1.1363574 
 3304000      356.687   -97.244986    149945.43    1.1099364 
 3305000    341.62883   -65.506623    148582.39    1.1201186 
 3306000     376.2461   -15.327159    146845.23    1.1333694 
 3307000     343.8144    28.223297    144156.93     1.154505 
 3308000    388.55151    90.176762    143041.18    1.1635103 
 3309000    359.08469    51.586069    146115.69    1.1390282 
 3310000    384.05744   -47.686391    147860.85    1.1255845 
 3311000    369.48158    43.186558    146308.36    1.1375282 
 3312000    387.37571   -78.988797    148240.57    1.1227014 
 3313000     373.3161   -80.852159    147721.89    1.1266434 
 3314000    362.84484    -2.012797       148526    1.1205438 
 3315000    396.34472   -49.092626    149687.47    1.1118492 
 3316000    374.16832    18.994864    146934.09     1.132684 
 3317000    368.01714   -31.274581    148373.95    1.1216921 
 3318000    366.13966   -80.633307    148468.65    1.1209766 
 3319000    354.24607   -29.309327    147456.53    1.1286709 
 3320000    386.52821    53.014271    147346.94    1.1295104 
 3321000    356.67782   -50.937798    148782.45    1.1186123 
 3322000    367.07515   -22.103282    148177.68    1.1231779 
 3323000       338.72   -92.641286    149117.22    1.1161011 
 3324000    403.86951    34.753544     146716.3    1.1343654 
 3325000    370.80696     20.11106    151305.73    1.0999576 
 3326000    380.41106    37.299935    152529.69    1.0911311 
 3327000     370.5928   -29.783574    152218.35    1.0933628 
 3328000    373.71802    -51.36081     152314.6    1.0926719 
 3329000    402.09952   -44.344601    152064.91    1.0944661 
 3330000    358.11067    6.4586075     148140.2    1.1234621 
 3331000    347.91788    54.515019    144835.89    1.1490929 
 3332000    397.87413    42.044796    145786.17    1.1416028 
 3333000    364.11168   -5.8014106    146827.17    1.1335088 
 3334000    379.30458   -57.385577    149284.01    1.1148541 
 3335000    370.27041   -76.000279    150983.94     1.102302 
 3336000    389.25899    36.268514    147947.99    1.1249216 
 3337000    368.31792    -11.31448    148664.48       1.1195 
 3338000     389.0919    8.4591922    145643.79    1.1427188 
 3339000     350.1827    16.808836    147258.27    1.1301904 
 3340000    385.46622    -31.51415    147497.57    1.1283569 
 3341000     374.0847   -10.231499    149143.27    1.1159062 
 3342000    367.86673    -36.95814    150723.66    1.1042054 
 3343000    377.91555    25.665535    148539.32    1.1204433 
 3344000    344.59566   -74.187573    150516.08    1.1057283 
 3345000    379.45192   -90.354991    149671.76    1.1119659 
 3346000    365.96198   0.34346369    147129.17    1.1311822 
 3347000    372.15853   -39.565351    148729.17    1.1190131 
 3348000    396.97826   -22.330418    149575.29     1.112683 
 3349000    365.32564     77.02513    147947.34    1.1249265 
 3350000    383.26214    33.793791    148345.78    1.1219051 
 3351000     372.8448   -41.853076    150193.87    1.1081004 
 3352000    380.04442   -37.591429    147051.87    1.1317768 
 3353000     358.7233    52.461218    146755.32    1.1340638 
 3354000    378.28085    40.054063    147622.03    1.1274055 
 3355000    363.46733   -80.370324    148686.28    1.1193359 
 3356000     372.0494   -15.789561    146566.23    1.1355269 
 3357000    371.34507   -17.829025    147099.91    1.1314072 
 3358000    375.92779     50.26654    148697.53    1.1192512 
 3359000    372.04527    52.723924    148076.74    1.1239435 
 3360000    410.79517   -58.059655     148279.9    1.1224036 
 3361000    376.77497    12.303814    146340.39    1.1372792 
 3362000    358.58644   -25.005564    147546.09    1.1279858 
 3363000    382.71709   -27.001366    147308.27    1.1298068 
 3364000    374.09407    47.696651    146342.06    1.1372663 
 3365000    370.92643    53.221401     146551.1    1.1356441 
 3366000    377.37038   -42.080253    149177.78     1.115648 
 3367000    343.75934   -39.739668    149704.28    1.1117243 
 3368000    392.90585    82.228313    148648.36    1.1196215 
 3369000    396.20202    -32.25767    151902.88    1.0956335 
 3370000     379.5894   -22.571342     149251.6    1.1150962 
 3371000    376.29817    63.432333    146678.92    1.1346545 
 3372000    403.09981   -50.671591    150889.37    1.1029928 
 3373000    359.04942    -38.41241    149349.98    1.1143616 
 3374000    363.25103    -64.59266    148673.23    1.1194342 
 3375000    347.83448   -86.868207    148760.92    1.1187743 
 3376000    411.55998    98.109026    145077.44    1.1471797 
 3377000     346.6269   -65.168421    148905.27    1.1176898 
 3378000    388.78104    41.676119    146382.58    1.1369515 
 3379000    368.44521   -42.316544    148566.35    1.1202395 
 3380000    362.30303   -34.853481    149984.97    1.1096438 
 3381000     360.8556    62.162071    147591.17    1.1276413 
 3382000     374.2136    44.151211    148427.14    1.1212902 
 3383000    365.93792    8.7637515    149264.97    1.1149963 
 3384000    381.12295   -19.139205    149970.47    1.1097511 
 3385000    379.48264      37.7855    148012.85    1.1244287 
 3386000     367.7654   -6.0754401    149901.35    1.1102628 
 3387000    374.79289   -43.095645    150750.59    1.1040082 
 3388000     371.8256    85.059748    149626.19    1.1123046 
 3389000    382.05329   -45.860879    148835.69    1.1182123 
 3390000    366.72437    58.910452    146900.79    1.1329407 
 3391000    389.72451   -14.507134    146815.56    1.1335984 
 3392000     357.6248    15.218277    145428.58    1.1444098 
 3393000    365.01018   -47.667921    148795.91    1.1185112 
 3394000     368.5687    73.330694    145257.76    1.1457556 
 3395000    367.89236    56.556188    146555.48    1.1356101 
 3396000    378.04586    34.802417    147843.78    1.1257145 
 3397000     371.7921   -28.570402    147673.97     1.127009 
 3398000    359.94496    -29.90057    148274.71    1.1224429 
 3399000    374.17396    95.116734    145781.94    1.1416358 
 3400000    367.11145   -59.841599    148325.12    1.1220614 
 3401000    386.31307   -48.537875    146261.67    1.1378913 
 3402000    355.89649   -52.974072    146679.07    1.1346533 
 3403000      370.288    37.314732    146272.85    1.1378044 
 3404000    377.64123   -15.213799    147835.46    1.1257779 
 3405000    366.90073   -37.417659    149503.79    1.1132152 
 3406000    375.56211    37.167681    148597.66    1.1200034 
 3407000    378.16813    59.555835    145820.45    1.1413344 
 3408000     334.7583   -23.225701    146539.51    1.1357339 
 3409000    371.13537    97.328147    145074.06    1.1472064 
 3410000    374.96629    -55.79153    147846.53    1.1256936 
 3411000    391.21741    34.835289    146598.97    1.1352733 
 3412000    392.00767    -17.56661    147254.89    1.1302164 
 3413000    358.98473   -58.218458    146828.31       1.1335 
 3414000    394.86999    94.711326     145159.7    1.1465296 
 3415000    358.92387    37.406367    147458.99    1.1286521 
 3416000    389.05961   -23.190881    148593.52    1.1200346 
 3417000     360.1137   -63.707257    148498.64    1.1207503 
 3418000    377.41578    38.238646    148560.46    1.1202839 
 3419000    356.59892    36.133814    147125.03     1.131214 
 3420000     397.9423    33.044966    147844.17    1.1257115 
 3421000    361.08979    63.873921    149248.52    1.1151192 
 3422000    345.57857    73.719337    146702.28    1.1344738 
 3423000    380.51382    84.422092    147791.84    1.1261101 
 3424000    358.09014    46.905644    146428.13    1.1365978 
 3425000    376.68112   -24.041998       144815    1.1492587 
 3426000     365.7383    77.759833    143111.09    1.1629419 
 3427000    371.47527   -3.9137925    144666.26    1.1504403 
 3428000    375.02158   -12.267182    146124.95     1.138956 
 3429000    376.09489   -37.910125    146603.03    1.1352418 
 3430000    359.40586    20.144864    143010.16    1.1637627 
 3431000    386.81441    68.105441    142732.07    1.1660301 
 3432000    369.86854   -52.968931    145575.98     1.143251 
 3433000    380.15281   -59.678156       144754    1.1497429 
 3434000    375.21117    13.497804    142418.25    1.1685995 
 3435000    339.50289   -27.798792    145982.33    1.1400687 
 3436000    377.01528    58.744306    145954.67    1.1402848 
 3437000    394.17361    25.885053    145150.08    1.1466056 
 3438000    346.41755   -65.616441    144691.64    1.1502385 
 3439000    373.34135   -24.835859    145919.15    1.1405623 
 3440000      358.172    29.568284    144836.64     1.149087 
 3441000     391.1849    71.249738    145401.75     1.144621 
 3442000    370.67581    54.697825    146522.49    1.1358659 
 3443000    374.18056     7.547647    146433.57    1.1365555 
 3444000    365.55151    27.627437    145476.13    1.1440358 
 3445000    386.24403    58.572985    143316.88    1.1612721 
 3446000      371.392    87.630111    142690.63    1.1663688 
 3447000     371.9427   -92.727271    148853.44    1.1180789 
 3448000    360.96327   -51.414709    148754.51    1.1188225 
 3449000    351.60599  -0.78544483    144057.13    1.1553048 
 3450000    396.91828    24.864935    142202.36    1.1703736 
 3451000    392.03633    91.054681    142338.79    1.1692518 
 3452000    347.50965    65.355251    143612.81    1.1588792 
 3453000    371.47719    64.384432    146235.78    1.1380928 
 3454000    382.81398    50.210664    147141.31    1.1310888 
 3455000    381.59067    38.898966    145962.65    1.1402225 
 3456000    361.96735   -50.928566    148186.73    1.1231093 
 3457000    388.68375   -74.153895    148142.63    1.1234436 
 3458000    355.76235   -51.884285    149196.15    1.1155106 
 3459000    373.24415   -19.656326    146647.38    1.1348985 
 3460000     361.1019  -0.75442869     147514.4    1.1282281 
 3461000    386.35433    91.590451     146197.5    1.1383908 
 3462000    374.59977    81.419254    145352.85     1.145006 
 3463000    355.22658    77.668927    144374.08    1.1527685 
 3464000    417.54319    36.174694     145810.4     1.141413 
 3465000    356.39331    33.218725    147258.39    1.1301895 
 3466000    366.41732   -36.089727    149497.77      1.11326 
 3467000    395.71473    90.619673    145613.01    1.1429603 
 3468000    378.16853    95.058409    145242.39    1.1458768 
 3469000    360.65238   -31.627527     147888.4    1.1253749 
 3470000    383.87115    49.555843    143920.52    1.1564014 
 3471000    370.90492    63.609566    144177.48    1.1543404 
 3472000    372.07098    77.849955    145317.14    1.1452874 
 3473000    365.87311    70.834327    145765.66    1.1417634 
 3474000    368.16813   -15.458989    148375.73    1.1216786 
 3475000    397.38464   -32.326981    147554.61    1.1279207 
 3476000    337.64889    64.340563    146319.36    1.1374428 
 3477000    385.36624   -90.339758    149967.15    1.1097756 
 3478000    360.64995   -68.006722    146958.08    1.1324991 
 3479000    347.96908    48.818935    143856.18    1.1569186 
 3480000    377.19535   -5.3226252    147550.36    1.1279531 
 3481000    370.57586    -67.44366    149069.43    1.1164589 
 3482000    380.47362    89.457671    146751.34    1.1340945 
 3483000    366.02131    39.170558    147525.91    1.1281401 
 3484000    378.25066    63.076394    144905.78    1.1485387 
 3485000    352.80045   -16.236318    146113.03    1.1390489 
 3486000    394.40109   -10.238384    148638.58    1.1196951 
 3487000    385.50812   -51.304339    149507.31     1.113189 
 3488000    373.89713    5.8639284    147570.85    1.1277965 
 3489000     379.2485     29.97062    145733.43    1.1420159 
 3490000     351.9583    63.161972    147480.83    1.1284849 
 3491000    388.08455    28.167881    148653.32    1.1195841 
 3492000    359.01831    49.669728    149044.28    1.1166473 
 3493000    402.34685   -4.7063566    150353.24    1.1069258 
 3494000    367.35713    68.888731    146910.86    1.1328631 
 3495000    368.16293   -89.858846    148487.55     1.120834 
 3496000     360.7176     -6.82079    146249.37    1.1379871 
 3497000    396.85235   -61.666079    147268.84    1.1301093 
 3498000    363.60308   -2.1107746     145560.2     1.143375 
 3499000    382.06693    14.797606    145860.17    1.1410236 
 3500000    378.80019    58.159518    146652.21    1.1348611 
 3501000    389.95272    80.951057    146986.95    1.1322767 
 3502000    381.80007    80.919036    147390.43     1.129177 
 3503000    373.71525  -0.67305366    147760.64     1.126348 
 3504000    349.45983    8.2294409    147960.41    1.1248272 
 3505000    397.52532    55.024658    149456.38    1.1135683 
 3506000    372.10037   -20.430809    148319.09     1.122107 
 3507000    374.24476    36.566349    144473.29    1.1519769 
 3508000    393.21771   -14.544792    145513.52    1.1437418 
 3509000     360.8566    10.663711    145151.04     1.146598 
 3510000    375.93339   -3.1008072     146140.8    1.1388325 
 3511000    380.32758     54.74075    146554.87    1.1356149 
 3512000    345.78965   -52.247066    146205.03    1.1383322 
 3513000    375.12579   -61.848702    145805.13    1.1414543 
 3514000    390.66434    83.040367    145669.96    1.1425135 
 3515000    365.80761    83.631681    147901.14    1.1252779 
 3516000     393.4018    87.817313    148013.24    1.1244257 
 3517000    342.34287   -34.402308    148048.66    1.1241567 
 3518000     375.2314    16.126625    148496.46    1.1207667 
 3519000     383.8131    53.446819    148666.17    1.1194873 
 3520000    367.70071    32.495459    147367.22    1.1293549 
 3521000    374.83162    45.283356    146837.89     1.133426 
 3522000    365.00577    84.180592    147056.47    1.1317414 
 3523000    385.47083    90.406648    146222.05    1.1381997 
 3524000    359.71994     62.65233    147111.93    1.1313147 
 3525000    393.21917    27.536257     149212.8    1.1153862 
 3526000    356.40217   -50.582622    149821.77    1.1108525 
 3527000    376.96751   -36.890161    150052.92    1.1091413 
 3528000    373.67398   -58.517623    149963.74    1.1098009 
 3529000    362.66147    40.596329    149212.97    1.1153849 
 3530000    379.98697   -28.227816    150193.62    1.1081023 
 3531000    380.43658   -5.8516047     148444.6    1.1211583 
 3532000    365.07226    64.823395    147401.53     1.129092 
 3533000    352.94997   -47.929786     147060.3    1.1317119 
 3534000    393.36513   -13.992993    145312.24     1.145326 
 3535000    376.65435   -60.566838     147771.2    1.1262675 
 3536000     381.1652    55.234068    146450.19    1.1364266 
 3537000      380.039   -74.280723    148761.13    1.1187727 
 3538000    373.13669    80.030148    144670.91    1.1504033 
 3539000      357.545   -59.401157    148069.49    1.1239985 
 3540000    385.40163   -9.8161347    150548.18    1.1054925 
 3541000    346.39935   -7.4645861    148304.64    1.1222164 
 3542000    364.41181     34.38615    145934.76    1.1404403 
 3543000    379.37606      64.2887    144617.79    1.1508258 
 3544000    373.73065    90.429808    142887.04    1.1647655 
 3545000     384.7922   -72.225597     144742.5    1.1498343 
 3546000    370.19663   -58.619291    144025.65    1.1555573 
 3547000     385.9344    32.166549    141808.38    1.1736252 
 3548000    368.58425   -1.4911351    143507.31    1.1597311 
 3549000    358.28587   -40.062836     145857.3     1.141046 
 3550000    409.27986   -36.440057    144901.52    1.1485724 
 3551000    370.19015     27.41172    142572.78    1.1673329 
 3552000    372.77313   -16.275285    145266.87    1.1456837 
 3553000    375.04278    69.210365    145224.69    1.1460165 
 3554000    398.09548    82.623738    145512.15    1.1437526 
 3555000    371.10186   -65.024602    147402.28    1.1290863 
 3556000    393.80196    5.6381769    143289.88    1.1614909 
 3557000    358.72366    67.475266    143109.94    1.1629513 
 3558000    384.10018   -29.377925    146830.09    1.1334862 
 3559000    352.53331     53.61106    145842.72    1.1411601 
 3560000    391.26484   -62.354664    149468.43    1.1134785 
 3561000    361.63842    7.1884984    147650.88    1.1271852 
 3562000    388.38677    5.3338288    146146.06    1.1387915 
 3563000    364.43913    88.469155    142727.22    1.1660697 
 3564000    391.83425    -64.51317    145206.03    1.1461637 
 3565000    344.52596    39.826166    141930.11    1.1726186 
 3566000    388.90426    28.931784    144504.63    1.1517271 
 3567000    384.33585    24.269362       144014    1.1556508 
 3568000     330.4972      24.6203    144071.78    1.1551873 
 3569000    360.26195   -11.887527    144586.89    1.1510718 
 3570000    379.28749    53.683088    142743.81    1.1659342 
 3571000    382.93099    82.230715       144146    1.1545925 
 3572000    372.48513   -47.102788    148618.78    1.1198443 
 3573000    359.54465     54.35215    147516.44    1.1282125 
 3574000    401.42387    4.7609097    149492.16    1.1133018 
 3575000    349.49209    63.653307    150138.77    1.1085071 
 3576000    390.22296    31.423142    149534.36    1.1129876 
 3577000    358.33227   -64.095701    151014.97    1.1020755 
 3578000    343.13147   -30.742531    148350.09    1.1218725 
 3579000    381.85618    16.112988    146020.39    1.1397716 
 3580000    385.11501    40.660144    144516.93     1.151629 
 3581000    365.71327    13.299476    144303.91    1.1533291 
 3582000    398.10045   -19.802576    145879.95    1.1408688 
 3583000    337.16465   -33.166428    147035.69    1.1319013 
 3584000    372.88736   -84.470221    147705.22    1.1267706 
 3585000    362.00048   -45.122671    146238.81    1.1380692 
 3586000    379.07175   -65.142408    147008.89    1.1321077 
 3587000    362.77988    10.040482    144446.24    1.1521926 
 3588000    388.43342    63.044979    147129.67    1.1311783 
 3589000    360.54906    45.916915     144476.1    1.1519545 
 3590000     402.5552    21.930237     144907.9    1.1485219 
 3591000     364.3041    44.169432    144872.67    1.1488011 
 3592000    381.75655   -64.208365    146918.44    1.1328046 
 3593000    357.31298   -73.667142    147899.82     1.125288 
 3594000    378.00892  -0.35622679    146993.73    1.1322244 
 3595000    343.45913   -65.074193    149482.76    1.1133718 
 3596000    394.98467   -51.564992    149657.44    1.1120723 
 3597000    350.02119    18.679597    148674.48    1.1194247 
 3598000    392.11146   -53.411675    150738.97    1.1040933 
 3599000    349.17034    -51.21369    148235.27    1.1227415 
 3600000    384.25973    54.050414    145013.22    1.1476877 
 3601000    350.09478   -39.871116    148050.89    1.1241398 
 3602000    403.34526   -44.991707     147583.5    1.1276999 
 3603000    357.61065   -37.959877    146676.17    1.1346757 
 3604000    383.34353   -55.226899    146437.58    1.1365245 
 3605000    390.81001   -34.113046    145485.27    1.1439638 
 3606000    353.16036   -4.6611218    144371.81    1.1527867 
 3607000     379.5032   0.37532299    145348.76    1.1450382 
 3608000    356.16616   -32.931595       147313    1.1297705 
 3609000    382.56118   -56.923155     146894.1    1.1329924 
 3610000    375.24088   -61.308821     146213.4     1.138267 
 3611000     359.0376   -66.832853    146737.59    1.1342008 
 3612000    358.18258   -13.193455    144875.35    1.1487799 
 3613000    374.85184    2.5761806    143839.03    1.1570565 
 3614000      340.817    46.302428    143299.81    1.1614104 
 3615000    393.15595    64.850413    143174.45    1.1624273 
 3616000    370.46328   -60.675373    147382.96    1.1292343 
 3617000    370.80093   -53.660503    148205.59    1.1229663 
 3618000    365.16525   -26.858585    145643.67    1.1427197 
 3619000    403.51284   -37.578979    146666.08    1.1347538 
 3620000    383.27179     73.18839    146619.63    1.1351133 
 3621000    347.56678    -32.15044    149033.25      1.11673 
 3622000     385.4447   -56.253561    150536.64    1.1055773 
 3623000    355.01126   -19.845903    150107.22    1.1087401 
 3624000    421.08752     58.52114    149149.18     1.115862 
 3625000    352.16595    51.550348    146288.52    1.1376825 
 3626000    392.68794     27.83624    147035.23    1.1319048 
 3627000    357.65966   -46.809041    150851.59    1.1032691 
 3628000    360.32421     50.89996    150217.97    1.1079226 
 3629000    375.53538    58.039218    146911.89    1.1328552 
 3630000    368.93256    50.621741    145854.05    1.1410715 
 3631000    390.23714    48.596621    144730.81    1.1499272 
 3632000     362.0795     19.95228    145947.71    1.1403392 
 3633000    370.78391   -56.729167    148501.13    1.1207315 
 3634000    363.12334   -76.711799    147782.94     1.126178 
 3635000    380.05656   -82.341239    150366.61    1.1068274 
 3636000    370.53136    39.930023    147071.41    1.1316264 
 3637000    377.55784    63.379897    148197.45    1.1230281 
 3638000    388.02699    10.044099    149234.81    1.1152217 
 3639000    350.53062    62.423401    145466.87    1.1441086 
 3640000    388.50726    10.359225    145638.31    1.1427617 
 3641000    392.14617   -58.466724    146534.29    1.1357744 
 3642000    360.96768   -4.7234051    147572.83    1.1277814 
 3643000    354.55816      83.8072    143856.31    1.1569176 
 3644000    370.04895   -58.680724    143743.36    1.1578266 
 3645000    373.00698   -2.4897349    142291.72    1.1696386 
 3646000    389.35089   -81.258948    143813.57    1.1572614 
 3647000    361.04115    72.870865    143967.73    1.1560222 
 3648000    358.84566    2.9171429    145301.93    1.1454073 
 3649000    379.24226    48.682674     143022.5    1.1636623 
 3650000    371.09127    4.6832799    147261.74    1.1301638 
 3651000    371.20929   -53.855012    148326.24     1.122053 
 3652000    400.84628    46.502971    147011.47    1.1320878 
 3653000    364.87097    72.404749    145483.63    1.1439768 
 3654000    382.59917   -51.187019    150811.56    1.1035619 
 3655000    367.56579    77.969753    146791.61    1.1337834 
 3656000    378.91743   -71.836365    149784.01    1.1111326 
 3657000    375.29315    16.541741    147761.81     1.126339 
 3658000     391.7039    63.154952     147110.8    1.1313234 
 3659000    352.70791   -36.747157    146019.47    1.1397788 
 3660000    388.45922    35.838479    143872.59    1.1567867 
 3661000    393.22028     70.94214    143622.29    1.1588027 
 3662000    376.54317    58.519047    143985.96    1.1558759 
 3663000    354.58782   -85.009586    146697.63    1.1345098 
 3664000    383.22102   -17.030835    148845.91    1.1181354 
 3665000    353.25793    3.4753546    148567.25    1.1202327 
 3666000    387.06124    -15.17154    150661.86    1.1046584 
 3667000    356.87798     -7.67204       149025    1.1167918 
 3668000    383.41347   -55.363092     150860.1    1.1032068 
 3669000     367.5976    1.5949091    147936.95    1.1250055 
 3670000    403.08086    69.919126    144073.38    1.1551745 
 3671000    367.52496   0.17803752    146442.94    1.1364829 
 3672000    365.26921    56.399039     145831.6    1.1412471 
 3673000    382.01474    91.176761    145275.88    1.1456127 
 3674000    361.68704   -77.499227    148463.17    1.1210181 
 3675000    375.84278   -33.950853    148155.86    1.1233433 
 3676000    391.92193    40.246544    146114.48    1.1390377 
 3677000    365.64778   -55.545359    146055.05    1.1395011 
 3678000     380.3049    60.005422    145116.45    1.1468713 
 3679000    381.63677   -43.448107    144880.11    1.1487421 
 3680000    372.39222    -16.56053    142359.06    1.1690853 
 3681000    361.32204   -26.147211    144388.89    1.1526503 
 3682000    371.46341   -71.100694    144655.49     1.150526 
 3683000    376.06503    93.985661     141920.5     1.172698 
 3684000    388.17604    86.643054    142590.28    1.1671896 
 3685000    354.80531   -77.780192    145952.57    1.1403012 
 3686000    337.56401   -55.723349    145690.58    1.1423517 
 3687000    385.87692   -57.883406    145574.21    1.1432649 
 3688000    352.46947   -7.2664493    145326.24    1.1452157 
 3689000    391.18497    53.396385    143452.69    1.1601727 
 3690000     365.6984    18.979241     145868.9    1.1409553 
 3691000    392.47891   -68.050841    144729.72    1.1499358 
 3692000    366.76988    5.3237359    143409.13    1.1605251 
 3693000    352.21538    57.888148    142704.27    1.1662573 
 3694000    377.55415    4.6584315    144667.03    1.1504341 
 3695000    378.68667    -77.92984    146466.89    1.1362971 
 3696000    363.21727   -62.907201    145369.14    1.1448777 
 3697000    379.48656   -75.745474    147655.61    1.1271491 
 3698000    355.64714   -73.382566     145523.2    1.1436657 
 3699000    376.13874   -3.8449945    143723.76    1.1579845 
 3700000    378.28875    61.361338    142233.06     1.170121 
 3701000    360.00791    48.276744     141966.6    1.1723172 
 3702000    383.59983    27.573068    144796.05    1.1494091 
 3703000    351.20842    -56.07161    146988.38    1.1322656 
 3704000    375.29279   -33.170184    146097.36    1.1391711 
 3705000    376.36281   -20.568468    145809.67    1.1414187 
 3706000    373.72044    68.355608    145514.48    1.1437342 
 3707000    383.93138     68.43599    146201.14    1.1383625 
 3708000    379.15511    -5.446532    147982.03    1.1246629 
 3709000    396.03835    2.9028059    147446.87    1.1287448 
 3710000    357.23997    -59.14909    145557.56    1.1433957 
 3711000    370.40458   -54.422028    146935.22    1.1326753 
 3712000     383.6144    67.236307    145048.73    1.1474067 
 3713000    357.00634   -51.821508    151140.66     1.101159 
 3714000    357.26586   -77.295955    152023.63    1.0947633 
 3715000     379.7208    -79.74775    151609.29    1.0977552 
 3716000    370.89688    41.575048    147973.74    1.1247258 
 3717000    381.62492   -49.236612    150657.25    1.1046922 
 3718000    402.22753    56.951826    147795.86    1.1260795 
 3719000    369.67528   -12.987704    149898.28    1.1102855 
 3720000    380.27439   -36.339369    149214.61    1.1153726 
 3721000    365.59068    1.5240878    147881.51    1.1254274 
 3722000    386.16577   -13.034246     146071.8    1.1393705 
 3723000    371.22874    22.072935    146316.21    1.1374672 
 3724000    401.99787    81.813784    147061.29    1.1317043 
 3725000    355.13453   -10.162591    148927.57    1.1175223 
 3726000    399.24127   -15.725008    148389.38    1.1215755 
 3727000    353.33826   -11.848327    147283.07    1.1300001 
 3728000    360.99639   -50.576711    147702.81     1.126789 
 3729000     378.3861    71.958525    144694.47     1.150216 
 3730000    374.96416   -67.891493    146395.83    1.1368486 
 3731000    369.23969    92.396543    143896.09    1.1565978 
 3732000    377.76515   -65.841658     149142.2    1.1159141 
 3733000    394.30946   -58.149045    147548.54    1.1279671 
 3734000    349.79905   -52.001157     144636.5     1.150677 
 3735000    390.01107    23.229078    144298.11    1.1533754 
 3736000    370.89009    18.285768    145020.18    1.1476326 
 3737000    391.73592    -52.88566    147652.55    1.1271725 
 3738000    349.59305    -79.83722    148200.16    1.1230075 
 3739000    383.31944   -79.726099     149496.3     1.113271 
 3740000    377.44658    -72.30706    148868.71    1.1179642 
 3741000    340.89074    66.969457    143372.33     1.160823 
 3742000    377.85549     45.25228    145172.62    1.1464275 
 3743000    371.52111    31.152263    147120.04    1.1312523 
 3744000    392.45304    68.068489    145100.76    1.1469953 
 3745000    347.65291   -42.975053    148407.35    1.1214397 
 3746000    375.82129    71.798614    148924.77    1.1175434 
 3747000    378.91013   -47.860668    151349.85     1.099637 
 3748000    344.69996   -54.935571    149798.65     1.111024 
 3749000    396.03656   -28.189893    147974.96    1.1247166 
 3750000    371.30109    53.466737    145703.29    1.1422521 
 3751000    396.96363    34.222144    146262.57    1.1378844 
 3752000    356.32713    40.745148    143852.51    1.1569481 
 3753000    373.03697   -48.398336    144735.81    1.1498874 
 3754000    407.91124    76.194095    144198.04    1.1541758 
 3755000    370.25064     41.34519     144324.2    1.1531669 
 3756000    383.18584    89.396772    144271.31    1.1535897 
 3757000    375.97906    57.385853    147087.46    1.1315029 
 3758000    378.57232    75.814656    146606.77    1.1352129 
 3759000    371.81951    -65.20767    150005.96    1.1094885 
 3760000    359.01846    45.950071    146472.12    1.1362564 
 3761000    371.63895   -15.644003    149199.68    1.1154842 
 3762000     374.4682   -4.7162802    146366.29     1.137078 
 3763000    387.43658    71.590562    145254.28     1.145783 
 3764000    356.78801   -80.352172    147412.24      1.12901 
 3765000    392.48469   -86.509774    148117.85    1.1236316 
 3766000    320.90791   -79.510112     146543.8    1.1357007 
 3767000    367.56989   -62.557104    145538.76    1.1435434 
 3768000    388.49709    34.415187    144540.75    1.1514392 
 3769000    411.27344    65.278499    144501.08    1.1517553 
 3770000    364.13739    -50.16973    147046.98    1.1318144 
 3771000    392.38259   0.24290988    145418.16    1.1444918 
 3772000    359.16413   -16.601934    145353.75    1.1449989 
 3773000    360.56324    18.045522    148188.53    1.1230956 
 3774000    360.98869   -61.428254     149872.8    1.1104743 
 3775000    380.16213   -60.853416    148395.49    1.1215293 
 3776000    367.73675    16.838995    144773.91    1.1495848 
 3777000    376.67758    86.106498    144714.03    1.1500605 
 3778000    379.23408   -2.8055794       146914    1.1328389 
 3779000    365.59471   -72.116293    148638.17    1.1196982 
 3780000    420.54908    56.155752    147526.89    1.1281326 
 3781000      369.056   -48.010449       149564    1.1127671 
 3782000    362.08986    57.796097    146977.01    1.1323532 
 3783000    398.51643   -57.011836    151495.38    1.0985806 
 3784000    344.97733    10.298977    147761.84    1.1263388 
 3785000    374.65227   -35.398093    147388.27    1.1291936 
 3786000    366.55398    68.044018    147721.98    1.1266427 
 3787000    388.10002    67.820459    147474.15     1.128536 
 3788000    335.99638   -62.288413    151519.25    1.0984076 
 3789000    383.87766      49.5446    149565.03    1.1127594 
 3790000    364.32131   -73.235584    153206.44    1.0863113 
 3791000      379.738    55.826606    148259.82    1.1225556 
 3792000    360.24057    -73.68779    152435.99    1.0918018 
 3793000    380.79947    41.432064    148548.36    1.1203751 
 3794000    346.94871   -55.490036    150642.81    1.1047981 
 3795000    380.91835   -57.214718       149023    1.1168068 
 3796000    365.63555    22.151202    147763.24    1.1263281 
 3797000    389.49409   -36.567114    150145.73    1.1084557 
 3798000    383.30155     60.83158     148384.2    1.1216146 
 3799000    356.83577    52.373728    145272.22    1.1456416 
 3800000    407.48572    64.739147    145198.13    1.1462261 
 3801000    363.32395    41.138801    145430.48    1.1443948 
 3802000    380.01276    75.837826    145913.28    1.1406082 
 3803000    366.41492    68.045879    145576.41    1.1432476 
 3804000    384.48455    79.603638    146084.35    1.1392726 
 3805000    365.45214   -38.812351    146035.49    1.1396537 
 3806000    395.44357   -82.014871    145788.94     1.141581 
 3807000    349.34711    84.483662    144458.78    1.1520926 
 3808000    385.72784    6.3631484    145885.34    1.1408267 
 3809000    371.97497   -34.814917    145544.85    1.1434956 
 3810000    357.15364    27.703103    145735.06    1.1420031 
 3811000    363.12505   -41.185572    147960.79    1.1248243 
 3812000    372.02138   -54.238614    148626.52    1.1197859 
 3813000    366.10574   -27.867796    148427.67    1.1212861 
 3814000    385.87291    16.699599    146451.78    1.1364142 
 3815000    363.36083    20.376972       144972    1.1480141 
 3816000    397.04684    23.049853    145326.78    1.1452114 
 3817000     368.8348   -70.012322    147595.81    1.1276058 
 3818000    352.29175   -56.843894    146691.88    1.1345542 
 3819000    408.20681    27.941653    144463.59    1.1520543 
 3820000    369.42417    54.780689    145131.49    1.1467524 
 3821000    385.69728    82.501228    145552.06    1.1434389 
 3822000     371.1674   -68.662485    149462.22    1.1135248 
 3823000    363.95307   -9.6831764    147990.65    1.1245973 
 3824000    348.06038    56.002822    144260.14     1.153679 
 3825000    377.35268    20.729725    145313.15    1.1453189 
 3826000    381.00751    31.618385    144861.76    1.1488877 
 3827000    374.77821    14.537299     144681.5    1.1503191 
 3828000    360.73519   -65.278915    148861.21    1.1180206 
 3829000    385.88845   -14.782817    146479.63    1.1361982 
 3830000    362.12571     -54.8499    147338.65    1.1295739 
 3831000    381.63828   -78.529319    147293.55    1.1299198 
 3832000    357.21606   -68.766715    149289.55    1.1148127 
 3833000    347.06487   -20.193975    149675.28    1.1119398 
 3834000    389.98499   -77.463814    149900.67    1.1102678 
 3835000    363.09912    -58.60329    149204.32    1.1154495 
 3836000    378.46872   -61.556629    148225.02    1.1228191 
 3837000    349.76252    62.845319    146154.72    1.1387241 
 3838000    388.26166   -12.751737    147315.44    1.1297518 
 3839000    373.09984    45.294218    146386.59    1.1369203 
 3840000    335.48423   -12.498553    149621.94    1.1123362 
 3841000    383.48023    66.498508    147979.97    1.1246785 
 3842000    366.71437   -27.199952    148552.72    1.1203423 
 3843000    377.50003    17.915217    148913.75    1.1176261 
 3844000    371.15271    77.970491    146554.16    1.1356204 
 3845000    402.00992    82.352722    144360.27    1.1528788 
 3846000    410.09824    82.119066    144999.92     1.147793 
 3847000      373.256    65.731164       145604     1.143031 
 3848000    396.31007    51.974654    145301.93    1.1454073 
 3849000    360.66328     23.12747    145179.92    1.1463699 
 3850000    381.41883   -45.088267    147552.34     1.127938 
 3851000    368.73485   -44.841116    145650.69    1.1426646 
 3852000    397.92869    38.249753    145209.47    1.1461366 
 3853000    368.65131    56.631951     142899.7    1.1646623 
 3854000    399.45654   -15.507756    143372.66    1.1608203 
 3855000    356.99061   -19.421911    143698.38     1.158189 
 3856000    395.11292   -66.049875    145913.33    1.1406078 
 3857000    368.85422    42.563353    143039.68    1.1635225 
 3858000    369.82745    13.745366    146480.86    1.1361886 
 3859000    404.07632    70.238902    143552.33    1.1593674 
 3860000    361.59022    69.654663    143797.16    1.1573935 
 3861000    394.68749    56.020422    143026.62    1.1636288 
 3862000    394.13979    -15.14596    143933.59    1.1562964 
 3863000    348.87052   -29.155411    144404.45     1.152526 
 3864000    394.61349   -9.0550616    143919.49    1.1564097 
 3865000    367.43169    86.617358    141231.45    1.1784195 
 3866000    364.15743  -0.23996388    142377.19    1.1689364 
 3867000    364.79383    51.407751     143628.1    1.1587558 
 3868000    387.60585   -12.153696    144870.43     1.148819 
 3869000    409.62469   -46.394045    147629.95    1.1273451 
 3870000    368.79634    71.362836    146322.49    1.1374184 
 3871000    374.44722    -67.65488    150241.17    1.1077515 
 3872000    386.63292   -62.027816    149667.63    1.1119965 
 3873000    351.77322   -60.346188    146596.22    1.1352945 
 3874000    374.29542    12.394504     145480.9    1.1439982 
 3875000     393.4499   -12.663699    145941.29    1.1403893 
 3876000    355.34816    47.318799    145115.99    1.1468749 
 3877000    411.15458   -54.987169    148806.03    1.1184352 
 3878000    371.22397    68.626203    144731.38    1.1499226 
 3879000    376.21168    7.5725886    145685.06     1.142395 
 3880000      391.229    90.585855    143340.78    1.1610785 
 3881000    364.15249   -48.902554    146189.75    1.1384511 
 3882000     356.8406    62.634924     143633.3    1.1587138 
 3883000    403.79952    67.696047    146879.36    1.1331061 
 3884000    361.81967    64.173401     146742.5    1.1341628 
 3885000    378.88354    2.7641414    149574.05    1.1126923 
 3886000    397.74344    58.365426    146329.99    1.1373601 
 3887000    380.09312    53.518644    146323.45    1.1374109 
 3888000    361.25509   -71.263572    149317.49    1.1146042 
 3889000    381.19026   -2.0951722    147446.63    1.1287467 
 3890000      362.684   -78.182966     150116.1    1.1086745 
 3891000     366.4952    40.348607    147399.68    1.1291062 
 3892000    372.02134   -64.743062    153022.77    1.0876152 
 3893000    360.26592   -44.814042     152779.2    1.0893492 
 3894000     380.6927   -54.448936    153004.51     1.087745 
 3895000    349.88694   -56.256192    153377.75     1.085098 
 3896000    392.10634   -35.648409    153018.64    1.0876445 
 3897000    365.70065   -13.269304     149909.2    1.1102047 
 3898000    370.75925   -66.194067    148818.42     1.118342 
 3899000     358.7089    73.521592    144556.11    1.1513169 
 3900000    391.77798   -72.509525    147573.92    1.1277731 
 3901000    364.60774    69.019603    144066.47    1.1552299 
 3902000    382.14081    15.359116    146265.79    1.1378593 
 3903000    349.05921   -70.677261    149592.67    1.1125538 
 3904000    388.57581    33.387023    147855.28     1.125627 
 3905000     400.1165   -61.873677    149836.46    1.1107436 
 3906000    371.02356    11.137751     148134.2    1.1235075 
 3907000    405.08131    57.668652    147456.84    1.1286685 
 3908000    355.68008   -41.152043    148106.48    1.1237178 
 3909000    373.79773   -15.039684    147135.78    1.1311313 
 3910000    353.28763   -43.306787    146692.76    1.1345474 
 3911000    375.11806    56.435898    145456.34    1.1441914 
 3912000    365.35065   -54.835278    148766.05    1.1187357 
 3913000    392.20742    -1.995673    147906.56    1.1252367 
 3914000    353.40547    51.292674    148489.04    1.1208228 
 3915000    373.55381    44.460689    149005.78    1.1169358 
 3916000     394.7215    50.019236    147814.77    1.1259355 
 3917000    372.65412    61.626145     147951.7    1.1248934 
 3918000    385.89214     4.779044    147656.34    1.1271436 
 3919000    362.84798   -33.469914    149924.58    1.1100907 
 3920000    387.45261    25.235155    149545.05     1.112908 
 3921000    363.01538   -21.246459    148033.62    1.1242709 
 3922000    369.85078   -59.190728    149003.47    1.1169531 
 3923000    367.89612    33.426581    147048.84    1.1318001 
 3924000    376.32907    -69.74999     148958.7    1.1172888 
 3925000    344.99816    75.748569    144516.34    1.1516337 
 3926000    375.44298   -56.565703    147964.88    1.1247932 
 3927000    365.89746   -28.098842    148566.25    1.1202403 
 3928000    408.81845   -56.664021    146953.94     1.132531 
 3929000    366.44409    46.987128    144855.65    1.1489361 
 3930000    399.51012   -56.605855    147429.97    1.1288742 
 3931000    376.00534    78.767906    142923.87    1.1644653 
 3932000     388.8783   -72.711435    145832.41    1.1412408 
 3933000    341.44467    24.900207    146419.17    1.1366673 
 3934000    387.85621   -7.0252551    148114.03    1.1236606 
 3935000    370.48396    29.287252    146193.92    1.1384187 
 3936000    374.03459   -63.474321    148981.86    1.1171151 
 3937000    370.37414   -57.104251    148250.38    1.1226271 
 3938000    387.27909    82.078345    144856.02    1.1489332 
 3939000    362.17752    58.252013    145377.33    1.1448132 
 3940000    371.40344   -53.325019    146771.87    1.1339359 
 3941000    382.90355   -45.311073    147675.68    1.1269959 
 3942000      389.396   -8.1869735    147930.57    1.1250541 
 3943000    365.39114   -54.692879    149070.04    1.1164543 
 3944000    392.12294    -12.29575    147097.84    1.1314231 
 3945000    363.32695   -24.017206    146694.66    1.1345327 
 3946000    375.89398    25.696643    145248.66    1.1458274 
 3947000    376.99876    36.983344    144132.93    1.1546972 
 3948000    388.51211   -24.820691    144858.72    1.1489118 
 3949000    376.81255   -26.227499    145804.86    1.1414564 
 3950000    371.30666    14.666785    146416.73    1.1366863 
 3951000    362.19703   -38.532735    147629.91    1.1273453 
 3952000    360.55187    79.561058    146493.17    1.1360932 
 3953000    386.65617     52.07219    149415.51    1.1138729 
 3954000    351.05739    42.053944    147410.25    1.1290252 
 3955000    399.09923   -7.7500595    149663.83    1.1120248 
 3956000    345.34971    69.430129    148884.41    1.1178463 
 3957000    369.36218    59.928742    149963.88    1.1097998 
 3958000    387.34807    76.428311    148764.62    1.1187464 
 3959000     375.1843    74.859486    147861.78    1.1255775 
 3960000    369.22308   -19.829627    149690.01    1.1118303 
 3961000    389.56752    55.993503    147097.34    1.1314269 
 3962000    365.83065   -49.934504    149129.28    1.1160109 
 3963000    389.28059    28.134857    147271.02    1.1300926 
 3964000    357.09236   -53.747316    148354.32    1.1218405 
 3965000    386.18416     14.22889    148620.22    1.1198335 
 3966000    350.68664    61.384317       145893    1.1407668 
 3967000    376.74396    39.836345    145065.89     1.147271 
 3968000    363.48926    49.656223    145307.95    1.1453598 
 3969000    385.78825   -46.789224    147637.18    1.1272898 
 3970000    371.91863   -72.705437     146713.4    1.1343878 
 3971000    369.43078   -86.637805     146760.6     1.134023 
 3972000     355.9754    53.763996    143833.83    1.1570984 
 3973000    353.64529    20.659129    143159.01    1.1625527 
 3974000    378.37625   -54.268873    144580.73    1.1511209 
 3975000    380.89806    19.941375    147583.89    1.1276968 
 3976000    359.88078    72.011113    146295.89    1.1376252 
 3977000    371.95791    17.544812    148034.39     1.124265 
 3978000    375.79847    70.027913    145749.19    1.1418924 
 3979000    358.42258    76.556233    146766.77    1.1339753 
 3980000    373.86796   -54.961878    146886.71    1.1330494 
 3981000    352.37899   -43.326626    147194.36    1.1306812 
 3982000    380.87196   -9.5276037     146372.7    1.1370282 
 3983000    360.68899    83.845918    143927.34    1.1563466 
 3984000    378.69102    93.897261    145480.15    1.1440041 
 3985000    375.79638    87.093127    149302.25    1.1147179 
 3986000    374.56226     25.83433    151595.62    1.0978542 
 3987000    371.45626   -33.188232    150786.82    1.1037429 
 3988000    362.26768   -28.230293    149075.48    1.1164136 
 3989000    398.73473   -36.796937    148503.21    1.1207158 
 3990000    353.72178     42.38128     145552.5    1.1434354 
 3991000    370.24187    52.398594    144084.82    1.1550828 
 3992000    398.38565   -28.654469     148232.4    1.1227633 
 3993000    362.32656    51.741803    147179.13    1.1307982 
 3994000    377.01353    85.310948    146520.34    1.1358825 
 3995000    364.09891    29.410658    148052.51    1.1241275 
 3996000    379.24527     6.064983    147887.56    1.1253813 
 3997000    352.57361   -45.936721     147575.3    1.1277625 
 3998000    381.98792   -61.408286    148462.46    1.1210234 
 3999000    349.52994   -60.516077    149233.76    1.1152295 
 4000000    380.17282    63.684218    148979.46    1.1171331 
Loop time of 494.706 on 1 procs for 4000000 steps with 384 atoms

Performance: 349.298 ns/day, 0.069 hours/ns, 8085.613 timesteps/s
100.0% CPU use with 1 MPI tasks x no OpenMP threads

MPI task timing breakdown:
Section |  min time  |  avg time  |  max time  |%varavg| %total
---------------------------------------------------------------
Pair    | 318.16     | 318.16     | 318.16     |   0.0 | 64.31
Neigh   | 109.53     | 109.53     | 109.53     |   0.0 | 22.14
Comm    | 20.386     | 20.386     | 20.386     |   0.0 |  4.12
Output  | 0.057351   | 0.057351   | 0.057351   |   0.0 |  0.01
Modify  | 41.527     | 41.527     | 41.527     |   0.0 |  8.39
Other   |            | 5.039      |            |       |  1.02

Nlocal:    384 ave 384 max 384 min
Histogram: 1 0 0 0 0 0 0 0 0 0
Nghost:    1170 ave 1170 max 1170 min
Histogram: 1 0 0 0 0 0 0 0 0 0
Neighs:    7214 ave 7214 max 7214 min
Histogram: 1 0 0 0 0 0 0 0 0 0

Total # of neighbors = 7214
Ave neighs/atom = 18.7865
Neighbor list builds = 315647
Dangerous builds = 36659

#unfix 		1
#fix		1 all nve
#run 		2000000

#dump pos all xyz 10 lj.xyz

dump		2 all custom 1 lj_trajectory_match_npt.out id mass xu yu zu vx vy vz fx fy fz
dump_modify	2 sort id

run		2000
Per MPI rank memory allocation (min/avg/max) = 4.431 | 4.431 | 4.431 Mbytes
Step Temp Press Volume Density 
 4000000    380.17282    63.684218    148979.46    1.1171331 
 4001000    385.57435    47.861675    149245.15    1.1151444 
 4002000    368.82598    60.686056    148358.78    1.1218068 
Loop time of 2.9387 on 1 procs for 2000 steps with 384 atoms

Performance: 29.401 ns/day, 0.816 hours/ns, 680.572 timesteps/s
99.2% CPU use with 1 MPI tasks x no OpenMP threads

MPI task timing breakdown:
Section |  min time  |  avg time  |  max time  |%varavg| %total
---------------------------------------------------------------
Pair    | 0.15541    | 0.15541    | 0.15541    |   0.0 |  5.29
Neigh   | 0.057186   | 0.057186   | 0.057186   |   0.0 |  1.95
Comm    | 0.010209   | 0.010209   | 0.010209   |   0.0 |  0.35
Output  | 2.6906     | 2.6906     | 2.6906     |   0.0 | 91.56
Modify  | 0.022483   | 0.022483   | 0.022483   |   0.0 |  0.77
Other   |            | 0.00278    |            |       |  0.09

Nlocal:    384 ave 384 max 384 min
Histogram: 1 0 0 0 0 0 0 0 0 0
Nghost:    1165 ave 1165 max 1165 min
Histogram: 1 0 0 0 0 0 0 0 0 0
Neighs:    7223 ave 7223 max 7223 min
Histogram: 1 0 0 0 0 0 0 0 0 0

Total # of neighbors = 7223
Ave neighs/atom = 18.8099
Neighbor list builds = 168
Dangerous builds = 0

####################################
# 6) Advanced inputs
####################################

#dump		2 all custom 1000 positions.lammpstrj id x y z vx vy vz
#dump_modify	2 sort id

#compute		RDF all rdf 150 cutoff 3.5
#fix		RDF_OUTPUT all ave/time 25 100 5000 c_RDF[*] file rdf_lj.out mode vector

#compute		MSD all msd
#fix		MSD_OUTPUT all ave/correlate 1 5000 5000 c_MSD[*] file msd_lj.out ave running

#compute		VACF all vacf
#fix		VACF_OUTPUT all ave/correlate 1 2500 5000 c_VACF[*] file vacf_lj.out ave running

#run		5000

#write_restart	restart2.lj.equil
Total wall time: 0:08:17
